16
Lattice="6.62 0.0 0.0 0.0 6.62 0.0 0.0 0.0 6.62" Properties=species:S:1:pos:R:3:forces:R:3 group=Nb_md1400_b1 composition=Nb energy=-160.38023376464844 pbc="T T T"
Nb       0.00000000       0.00000000       0.00000000      -0.00000141       0.00000449      -0.00000203
Nb       1.65500000       1.65500000       1.65500000      -0.00000612      -0.00000755      -0.00000442
Nb       0.00000000       0.00000000       3.31000000       0.00000829       0.00000844       0.00002619
Nb       1.65500000       1.65500000       4.96500000      -0.00000390      -0.00000241      -0.00001750
Nb       0.00000000       3.31000000       0.00000000       0.00000931       0.00000685       0.00001249
Nb       1.65500000       4.96500000       1.65500000       0.00000998      -0.00002439      -0.00000929
Nb       0.00000000       3.31000000       3.31000000       0.00000370       0.00000764       0.00001498
Nb       1.65500000       4.96500000       4.96500000      -0.00001821       0.00000193      -0.00002421
Nb       3.31000000       0.00000000       0.00000000       0.00001052       0.00001039       0.00001168
Nb       4.96500000       1.65500000       1.65500000      -0.00002342       0.00000487      -0.00000855
Nb       3.31000000       0.00000000       3.31000000       0.00000855       0.00000899       0.00001135
Nb       4.96500000       1.65500000       4.96500000       0.00000331      -0.00001985      -0.00002123
Nb       3.31000000       3.31000000       0.00000000       0.00000787       0.00000933       0.00002140
Nb       4.96500000       4.96500000       1.65500000      -0.00000468      -0.00000627      -0.00000376
Nb       3.31000000       3.31000000       3.31000000       0.00000808       0.00000957       0.00000652
Nb       4.96500000       4.96500000       4.96500000      -0.00001200      -0.00001197      -0.00001358
16
Lattice="6.62 0.0 0.0 0.0 6.62 0.0 0.0 0.0 6.62" Properties=species:S:1:pos:R:3:forces:R:3 group=Nb_md1400_b1 composition=Nb energy=-159.19549560546875 pbc="T T T"
Nb      -0.17278679       0.03954381      -0.00748125       1.23699081       0.59620780       0.57017416
Nb       1.66485520       1.58714433       1.51460969      -0.43276894       0.48925388       0.28013766
Nb      -0.03976788      -0.01501073       3.33189690      -0.10423134       0.38201872      -0.10233466
Nb       1.64103356       1.58499093       4.86384693      -0.29678491       0.45668811       0.17639239
Nb      -0.15831149       3.43218381      -0.11522598       1.62089694      -0.41984221       1.58002329
Nb       1.77234706       5.03439148       1.56131626      -0.71847582      -0.30760279       0.60332048
Nb      -0.05256832       3.36599013       3.36393262       0.39810804      -0.28090096      -0.51811260
Nb       1.59928687       5.00558601       5.02015951       0.15389663      -0.05632256      -0.64634234
Nb       3.31087990       0.02094483      -0.11367854      -0.70139772       0.51444757       0.49121949
Nb       4.84642641       1.57488445       1.58267473       0.34654361       0.46553862       0.79794919
Nb       3.24621562      -0.01835178       3.24299541       0.34495741       0.05016334       0.37494278
Nb       4.91474421       1.98422793       5.20416504      -0.24434257      -1.72347021      -1.67689252
Nb       3.22890281       3.45312445       0.00026175      -0.47077736      -0.43680307       0.43714052
Nb       4.99616284       4.91830865       1.80162070      -0.15381519       0.03790633       0.08039984
Nb       3.31247365       3.23871102       3.38121863      -0.24477135       0.41480449      -0.35450405
Nb       4.98934519       5.13802571       5.24337392      -0.73402852      -0.18208666      -2.09351468
16
Lattice="6.62 0.0 0.0 0.0 6.62 0.0 0.0 0.0 6.62" Properties=species:S:1:pos:R:3:forces:R:3 group=Nb_md1400_b1 composition=Nb energy=-158.6850128173828 pbc="T T T"
Nb      -0.21959249       0.18122380       0.02899380       1.11781371       0.00350581       0.22460723
Nb       1.63556839       1.57737424       1.38668835      -0.61734617       0.62243336       0.94690025
Nb      -0.12518729      -0.00017717       3.33828103       0.24118459       0.66423225       0.05131727
Nb       1.59820345       1.50186527       4.77718313      -0.48258901       1.28105402       0.49521017
Nb      -0.17701171       3.55223189      -0.04764240       1.19825494      -0.54648155       0.90111220
Nb       1.74478290       5.00166506       1.60250719      -0.95171022       0.30429029       0.67791104
Nb      -0.02140462       3.41016167       3.31249809       0.48213515      -0.75347877       0.16941899
Nb       1.60990524       5.06065168       4.99719726      -0.34043932      -0.35168362      -0.47819284
Nb       3.27320952       0.11048266      -0.16475242      -0.58014143       0.29375404       0.99691039
Nb       4.78717216       1.52635033       1.66725513       0.49642885       1.05844617       0.42260683
Nb       3.23445874      -0.03321226       3.23262706       0.15688998       0.13777772       0.27585337
Nb       4.86765803       2.12863038       5.20372341       0.05124402      -1.74311662      -1.28406250
Nb       3.10358756       3.54430126       0.10445728       0.50733620      -0.88946557      -0.33520079
Nb       5.03980305       4.89789339       1.94549159      -0.88476777       0.27973756      -1.07107139
Nb       3.27582624       3.19840394       3.39829307      -0.37494648       0.68515342      -0.33761826
Nb       4.89388428       5.26888953       5.23794072      -0.01934684      -1.04615819      -1.65570164
16
Lattice="6.62 0.0 0.0 0.0 6.62 0.0 0.0 0.0 6.62" Properties=species:S:1:pos:R:3:forces:R:3 group=Nb_md600_b0 composition=Nb energy=-160.38023376464844 pbc="T T T"
Nb       0.00000000       0.00000000       0.00000000      -0.00000141       0.00000449      -0.00000203
Nb       1.65500000       1.65500000       1.65500000      -0.00000612      -0.00000755      -0.00000442
Nb       0.00000000       0.00000000       3.31000000       0.00000829       0.00000844       0.00002619
Nb       1.65500000       1.65500000       4.96500000      -0.00000390      -0.00000241      -0.00001750
Nb       0.00000000       3.31000000       0.00000000       0.00000931       0.00000685       0.00001249
Nb       1.65500000       4.96500000       1.65500000       0.00000998      -0.00002439      -0.00000929
Nb       0.00000000       3.31000000       3.31000000       0.00000370       0.00000764       0.00001498
Nb       1.65500000       4.96500000       4.96500000      -0.00001821       0.00000193      -0.00002421
Nb       3.31000000       0.00000000       0.00000000       0.00001052       0.00001039       0.00001168
Nb       4.96500000       1.65500000       1.65500000      -0.00002342       0.00000487      -0.00000855
Nb       3.31000000       0.00000000       3.31000000       0.00000855       0.00000899       0.00001135
Nb       4.96500000       1.65500000       4.96500000       0.00000331      -0.00001985      -0.00002123
Nb       3.31000000       3.31000000       0.00000000       0.00000787       0.00000933       0.00002140
Nb       4.96500000       4.96500000       1.65500000      -0.00000468      -0.00000627      -0.00000376
Nb       3.31000000       3.31000000       3.31000000       0.00000808       0.00000957       0.00000652
Nb       4.96500000       4.96500000       4.96500000      -0.00001200      -0.00001197      -0.00001358
16
Lattice="6.62 0.0 0.0 0.0 6.62 0.0 0.0 0.0 6.62" Properties=species:S:1:pos:R:3:forces:R:3 group=Nb_md600_b0 composition=Nb energy=-159.95550537109375 pbc="T T T"
Nb      -0.01276871      -0.05816413       0.13294534       0.12271934       0.16796680      -0.55817086
Nb       1.50789108       1.62791464       1.75225989       0.41470349       0.12173826      -0.46876270
Nb      -0.01173331       0.00139182       3.32406784      -0.33629909      -0.18423583       0.39491650
Nb       1.69483833       1.59920014       4.94128303      -0.63245153       0.05411290       0.37986571
Nb      -0.02550250       3.30320148      -0.03901890      -0.12798235       0.03147798       0.11553681
Nb       1.59787765       4.98415083       1.77199283       0.22757693      -0.19762436      -0.16490354
Nb      -0.06353099       3.20301879       3.35813569       0.00230759       0.53086418      -0.15497331
Nb       1.68886417       4.99621368       5.02624298      -0.38174173      -0.05864025      -0.12532026
Nb       3.39064824       0.00802979       0.06206109      -0.52804267      -0.13844028       0.09557851
Nb       4.88105162       1.66852108       1.51408678       0.03320035       0.22062895       0.45036381
Nb       3.28753146       0.08957540       3.44615329       0.17788661      -0.43206114      -0.65302175
Nb       4.88709805       1.76518735       4.92978118       0.46281567      -0.35331190       0.10696288
Nb       3.11733300       3.25761662      -0.14297984       0.47295776       0.31690642       0.72340286
Nb       4.96479070       4.98092607       1.68991612      -0.23077929      -0.28555775       0.09744450
Nb       3.26437117       3.27589066       3.24414427       0.01023542       0.37408417      -0.13934512
Nb       4.89733324       5.03320010       5.00711922       0.31289396      -0.16790801      -0.09957391
16
Lattice="6.62 0.0 0.0 0.0 6.62 0.0 0.0 0.0 6.62" Properties=species:S:1:pos:R:3:forces:R:3 group=Nb_md600_b0 composition=Nb energy=-159.36984252929688 pbc="T T T"
Nb      -0.09627839      -0.11425882       0.19363100       0.41636729       0.36809003      -0.63797706
Nb       1.41975943       1.58016946       1.80536459       0.53009516       0.12077557      -0.74928498
Nb      -0.06965520      -0.03550151       3.42989150      -0.31769094      -0.13367857       0.08562118
Nb       1.70131877       1.56085740       4.95898999      -0.97880757       0.05373409       0.42376563
Nb      -0.07991192       3.28608176      -0.03767935       0.09820472       0.20073912       0.24286613
Nb       1.57953754       4.97650314       1.88792485       0.02080742      -0.09127459      -0.57645702
Nb      -0.10834842       3.11834276       3.40214142       0.34459418       1.16162395      -0.49516875
Nb       1.71994305       5.07678057       5.05306967      -0.72595459      -0.32070303      -0.10680698
Nb       3.39819117       0.00234153       0.11536884      -0.86747122      -0.19669199       0.04704615
Nb       4.82019808       1.73892296       1.43228563       0.11757427       0.03547758       0.87311959
Nb       3.30560883       0.14855053       3.47146565       0.27070999      -0.58431768      -0.93415439
Nb       4.89098087       1.86357069       4.89622549       0.07425207      -0.90010142       0.38521913
Nb       2.98505509       3.22922825      -0.21157892       0.84468484       0.62888253       1.22871745
Nb       4.92978415       4.94944224       1.71853046      -0.21452153      -0.21451513       0.07514822
Nb       3.20275665       3.31273242       3.15081836       0.06569397       0.17732778       0.24364218
Nb       4.85789570       5.05690138       5.02957187       0.32146183      -0.30536816      -0.10529641
16
Lattice="6.62 0.0 0.0 0.0 6.62 0.0 0.0 0.0 6.62" Properties=species:S:1:pos:R:3:forces:R:3 group=Nb_rattle05_b0 composition=Nb energy=-160.045166015625 pbc="T T T"
Nb      -0.03893330       0.00180256       0.12007320       0.50019085       0.01015160      -0.44593653
Nb       1.61900059       1.64853336       1.59242672       0.07026096       0.20027007       0.29130787
Nb      -0.04682010      -0.02079312       3.37441375       0.49385926       0.57689750      -0.15875651
Nb       1.70627183       1.62524866       4.95544461      -0.10384198       0.23028603      -0.03358071
Nb      -0.07244963       3.33505288      -0.06686411       0.37493172      -0.15660724       0.12014714
Nb       1.62252729       4.98074104       1.68217299       0.32167259      -0.05719228      -0.13855863
Nb      -0.03990146       3.43252289       3.27084697       0.36239588      -0.80435276       0.09217481
Nb       1.66236678       5.00648268       4.93133146       0.28355539      -0.11855970       0.26227248
Nb       3.37282888      -0.00968007       0.08327546      -0.43590754      -0.16291291      -0.31444505
Nb       4.94872443       1.57003145       1.59716366      -0.02322409       0.60735816       0.44015276
Nb       3.34074899       0.03594803       3.34228274      -0.19540045      -0.02909516      -0.04008950
Nb       5.01148119       1.59279276       5.00424507      -0.16908683       0.43580210      -0.18858112
Nb       3.29041329       3.34182664      -0.00805512      -0.00747262      -0.02474976      -0.09926036
Nb       5.04403281       4.96854923       1.68967750      -0.56205219      -0.17133634      -0.21413159
Nb       3.38209461       3.36918185       3.27310867      -0.25144967      -0.23682871       0.13128945
Nb       5.07994799       5.03486726       4.94818747      -0.65843147      -0.29913065       0.29599538
16
Lattice="6.62 0.0 0.0 0.0 6.62 0.0 0.0 0.0 6.62" Properties=species:S:1:pos:R:3:forces:R:3 group=Nb_rattle05_b0 composition=Nb energy=-160.06471252441406 pbc="T T T"
Nb       0.06966310       0.02020173      -0.01091805      -0.30059534      -0.22327550      -0.12165573
Nb       1.65283986       1.66696463       1.60619139       0.06940651      -0.20560481       0.46241134
Nb      -0.07260237       0.01383390       3.28425487       0.34697118      -0.08791354       0.03395268
Nb       1.64123385       1.62538899       4.93924416      -0.05560863      -0.24154529      -0.22127680
Nb       0.02151091       3.28150411       0.06244200      -0.33316895       0.20432898      -0.56934166
Nb       1.72411763       4.85357991       1.60034225      -0.26837429       0.35879889       0.42330983
Nb      -0.00553869       3.30944267       3.25308802       0.11989728       0.06978691       0.28097034
Nb       1.68349570       4.89609824       4.92983630      -0.16696134       0.32787323      -0.19144300
Nb       3.25328943      -0.01212990       0.11114127       0.29920429       0.04605461      -0.73822618
Nb       5.01497003       1.74186069       1.59317728      -0.29083422      -0.20881312       0.03200455
Nb       3.34735269      -0.03647723       3.18230983      -0.20299003       0.03060018       0.53038579
Nb       4.94090240       1.63292663       4.94557164       0.08760647      -0.17712705       0.15144761
Nb       3.17771793       3.28886568      -0.08356643       0.76890421      -0.07120396       0.20050661
Nb       4.96983392       5.02667171       1.58804743       0.15022196      -0.23940654       0.04245880
Nb       3.38437796       3.23256071       3.36536843      -0.24488430       0.14724462      -0.43080881
Nb       4.98304024       4.89305201       4.94165402       0.02120525       0.27020231       0.11530466
16
Lattice="6.62 0.0 0.0 0.0 6.62 0.0 0.0 0.0 6.62" Properties=species:S:1:pos:R:3:forces:R:3 group=Nb_rattle05_b0 composition=Nb energy=-160.08648681640625 pbc="T T T"
Nb      -0.01929206      -0.04459621       0.07987643      -0.15910864       0.13439834      -0.39210120
Nb       1.60966998       1.58960023       1.62949538       0.19233474       0.03598577       0.13017853
Nb       0.00180707       0.01298824       3.31886593       0.05380960       0.03035438       0.23159498
Nb       1.72148951       1.77085777       5.03055481      -0.38354906      -0.53809112      -0.17253996
Nb      -0.02956345       3.39381705       0.00787308      -0.07797316      -0.26925462      -0.00565433
Nb       1.63039457       4.93668818       1.65973553       0.04462188       0.10835493      -0.08077297
Nb       0.09282343       3.22955608       3.34158868      -0.27983296       0.15390921      -0.05404346
Nb       1.66194356       4.98816771       4.84977119       0.01214707       0.13839771       0.42903990
Nb       3.29608765      -0.04839151      -0.02346620       0.08498430      -0.06311278       0.07395213
Nb       4.99107066       1.69064539       1.66560727      -0.06806681      -0.27669761      -0.12881897
Nb       3.38357670      -0.02357396       3.29899711      -0.33292970       0.22857720      -0.01924138
Nb       4.85366723       1.70585916       4.95155239       0.54019225      -0.23431405       0.22062676
Nb       3.23831536       3.24953200       0.06894189       0.26553434       0.35507584      -0.16394755
Nb       4.92404119       4.91060158       1.80742288       0.28190464       0.16833742      -0.69098359
Nb       3.32774177       3.31299386       3.25774930      -0.19800477      -0.23303875       0.19101013
Nb       4.97107183       4.89872163       4.91343859       0.02393625       0.26111811       0.43170115
16
Lattice="6.62 0.0 0.0 0.0 6.62 0.0 0.0 0.0 6.62" Properties=species:S:1:pos:R:3:forces:R:3 group=Nb_rattle10_b1 composition=Nb energy=-159.73472595214844 pbc="T T T"
Nb      -0.14914275       0.15894672      -0.01629160       0.45356157      -0.51789463       0.16641147
Nb       1.67097799       1.73514599       1.76994914      -0.33670452      -0.30464423      -0.46699128
Nb      -0.14185786       0.03097463       3.26596245       0.27884117      -0.01481601      -0.05607572
Nb       1.54348114       1.70983268       4.92249035       0.07110880      -0.45780998       0.44672832
Nb       0.13366070       3.43984911       0.15638639      -0.48947716      -0.03245208      -0.45164597
Nb       1.70738576       5.04431393       1.67154347      -0.14033696       0.15877472       0.11278656
Nb      -0.09253319       3.35504478       3.40423720       0.46731049      -0.03649834      -0.33951306
Nb       1.61744662       4.89546186       4.89567998       0.33830374       0.71956348       0.13532123
Nb       3.19089641       0.07445209      -0.02276576       0.17110917      -0.22927603      -0.07624219
Nb       5.01564127       1.77691649       1.58772896      -0.32954144      -0.50871021       0.08124672
Nb       3.25252192       0.15010080       3.31274787       0.22147191      -0.75102508       0.08615207
Nb       4.98499523       1.76483357       4.98316864      -0.29302680      -0.31408662       0.22309759
Nb       3.17542677       3.28228068      -0.03895203       0.58821130       0.28772664       0.07500958
Nb       4.89068190       4.80110931       1.71629957      -0.08353575       0.91336006      -0.35941613
Nb       3.31708968       3.15781336       3.33519378      -0.17325439       0.91531003       0.04886582
Nb       5.07116197       4.99603463       4.96183730      -0.74404109       0.17247829       0.37426469
16
Lattice="6.62 0.0 0.0 0.0 6.62 0.0 0.0 0.0 6.62" Properties=species:S:1:pos:R:3:forces:R:3 group=Nb_rattle10_b1 composition=Nb energy=-159.46044921875 pbc="T T T"
Nb       0.09219028      -0.08087777      -0.06723423      -0.42263308       0.38172990       0.36683419
Nb       1.73604220       1.37864522       1.75279436      -0.23472610       1.34219289      -0.54351211
Nb       0.00358927      -0.03546932       3.41456209      -0.04559270      -0.08425134      -0.49648878
Nb       1.53505633       1.77314230       4.73358841       0.47265530      -0.10425597       0.91009772
Nb       0.00525150       3.33084493      -0.01172200       0.15366653      -0.38410431       0.05919532
Nb       1.69423464       5.04063769       1.74981646      -0.19887626      -0.64572370      -0.31746611
Nb      -0.12094156       3.29771605       3.26094519       0.38195902      -0.04861464       0.03098884
Nb       1.72312663       4.96113056       5.01797172      -0.61624658      -0.21206060      -0.24969363
Nb       3.20442332       0.06264180      -0.04114079       0.47038984       0.14359048       0.36590832
Nb       4.99195435       1.66876739       1.69531229      -0.04389635      -0.19444086      -0.25746965
Nb       3.37690800      -0.13506921       3.42446430      -0.25030524       0.81405914      -0.67895395
Nb       4.87459690       1.44510830       5.03992861       0.18729568       1.19694018      -0.01942843
Nb       3.36604322       3.51295743      -0.05623439      -0.27019364      -1.05267215       0.36070114
Nb       5.04803298       5.00073921       1.62588872      -0.09228854       0.18011746      -0.24609342
Nb       3.33678792       3.41067934       3.22226539      -0.17884982      -0.80458367       0.01941693
Nb       4.91984582       4.96102809       4.88634654       0.68764144      -0.52792275       0.69596350
16
Lattice="6.62 0.0 0.0 0.0 6.62 0.0 0.0 0.0 6.62" Properties=species:S:1:pos:R:3:forces:R:3 group=Nb_rattle10_b1 composition=Nb energy=-159.3294219970703 pbc="T T T"
Nb       0.03307502       0.06180406      -0.09420368      -0.13493149      -0.48321810       0.21203208
Nb       1.73663436       1.34449490       1.59222602      -0.57797730       1.66816640       0.28722048
Nb       0.03168110       0.07119300       3.26177924      -0.11059463      -0.81520700       0.00447905
Nb       1.44776669       1.83403335       4.99816747       1.13501215      -0.92110085      -0.59856790
Nb       0.00898996       3.34673252       0.00690502      -0.60049820      -0.18880653       0.57388848
Nb       1.67615846       4.89530887       1.66058330       0.03022620      -0.27903807       0.50089073
Nb      -0.05349685       3.23698245       3.29891219       0.06777024       0.58841920      -0.59627593
Nb       1.52270350       4.92511079       5.10156606       0.74723905       0.63792956      -0.99604279
Nb       3.33948151       0.01056815       0.04412671      -0.10131598      -0.45667264      -1.10532939
Nb       4.99384885       1.56109716       1.46330680       0.10286278       0.76690358       0.46878114
Nb       3.32297470       0.16296790       3.26617036       0.08211699      -1.10623085       0.73442811
Nb       5.01296429       1.56659713       4.83544366      -0.61407328       0.39327079       0.34926540
Nb       3.17160679       3.24316517      -0.09031610       0.73788404       0.11802991       0.41597652
Nb       4.96779224       5.03174820       1.51635745      -0.03463878      -0.45543444       0.75588483
Nb       3.37766785       3.22743875       3.29558539      -0.25462821       0.54736841      -0.20085394
Nb       4.98910375       4.93526299       5.07429413      -0.47445351      -0.01437995      -0.80577749
54
Lattice="9.93 0.0 0.0 0.0 9.93 0.0 0.0 0.0 9.93" Properties=species:S:1:pos:R:3:forces:R:3 group=Nb_rattle10_b9 composition=Nb energy=-537.2716064453125 pbc="T T T"
Nb       0.07101037       0.02494978      -0.00216060      -0.74885279      -0.06367262       0.10305765
Nb       1.65226566       1.60257498       1.61290196      -0.21623099       0.26083979       0.42873293
Nb       0.05207109       0.08128726       3.42999668      -0.16005461      -0.36814523      -0.03174546
Nb       1.78268703       1.71656973       4.96925686      -0.72351635       0.30059648       0.08738637
Nb      -0.00378009      -0.03544735       6.70391163      -0.00110271       0.25217515      -0.21756768
Nb       1.69274866       1.60857946       8.47287419      -0.45739299       0.63948780      -1.40450895
Nb      -0.00169779       3.38730547      -0.10519075       0.27430287      -1.10581326       0.96135008
Nb       1.76375811       4.87237235       1.66033187      -0.79958832       0.71871400      -0.16771138
Nb      -0.19969751       3.37893807       3.04612708       1.07613921      -0.42482710       1.11917877
Nb       1.77233101       4.87046879       4.87726430      -0.59387177      -0.14671470       0.52729660
Nb      -0.21310265       3.46519097       6.50009583       2.33716774      -1.52391148      -0.50165272
Nb       1.63623110       4.90583574       8.34431066       0.27850860       0.63315880      -0.83429390
Nb       0.12647462       6.57110184      -0.02529848      -0.59242678       0.44214764       0.18007381
Nb       1.51318333       8.39014037       1.74356744       0.30989623      -0.58526748      -0.29620385
Nb       0.01151676       6.52918464       3.34455459      -0.34558234       0.33473644      -0.16081119
Nb       1.83650359       8.17626725       4.95832615      -1.23681462       0.43561405       0.42458257
Nb      -0.12163583       6.63403033       6.51793580       0.87035757       0.07072973       0.42512217
Nb       1.69392538       8.34665822       8.39046499      -0.13116711      -0.56568474      -0.38241065
Nb       3.37411906       0.16165647      -0.02380941      -0.20298398      -0.86826479       0.28832674
Nb       5.06819714       1.74274648       1.62815352      -0.41865447      -0.44584984       0.42028064
Nb       3.21328487       0.01016401       3.27929058       0.54938257      -0.03253054      -0.08716165
Nb       4.77329218       1.64818548       5.00546490       0.58610547       0.22806302       0.12668347
Nb       3.11549031       0.03556813       6.62459598       0.73596144       0.03487942       0.25448632
Nb       5.11736571       1.46639315       8.39286752      -1.25850129       1.32153416      -1.29221535
Nb       3.19576324       3.37181284       0.03459959       0.96442491      -0.20503679      -0.37746292
Nb       5.04202177       4.95717446       1.70420640      -0.31679735       0.60543430      -0.27360326
Nb       3.35791715       3.29137873       3.06153319      -0.11191481      -0.21436495       1.19011831
Nb       4.89515407       4.99890744       4.91036111       0.24495286       0.03609354       0.33486730
Nb       3.34462687       3.40016768       6.77412224      -0.11486845      -0.54653382      -0.45484903
Nb       4.95366227       4.96524300       8.20371799       0.68453610      -0.07839432       0.14048749
Nb       3.32209955       6.62803090       0.00158195      -0.14517526       0.13545644       0.06415237
Nb       4.87808065       8.38426354       1.47682321      -0.17522094      -0.24645500       1.22980785
Nb       3.06508048       6.58753360       3.32862594       1.39639306       0.25348014      -0.53961289
Nb       4.88597798       8.39074290       5.00933473       0.30512932      -0.40895110      -0.28067598
Nb       3.33689414       6.68229907       6.66168895      -0.10939156      -0.36275551      -0.03357811
Nb       5.05760648       8.16446946       8.16021366      -0.55872333       0.25008869       0.06554221
Nb       6.51094040       0.07096997      -0.02998161       1.06771421      -0.67601877       0.84135723
Nb       8.27374085       1.57095963       1.75378888      -0.15039730       0.07092471      -0.50438672
Nb       6.53721111       0.02462769       3.45496809       0.01506963      -0.10331857      -0.35715860
Nb       8.33769901       1.66035815       4.88710280      -0.21194726      -0.25782496       0.27057156
Nb       6.70590330      -0.03604098       6.75390702      -0.33870846       0.11370922      -0.93389267
Nb       8.17925640       1.74357096       8.30779136       0.97421098      -0.85644543       0.26210675
Nb       6.54007794       3.29925347       0.05383233       0.25400376       0.50797045      -0.19898316
Nb       8.30912059       4.92459144       1.54924952      -0.47265840       0.86836094      -0.07206617
Nb       6.57144381       3.37052625       3.29893430       0.02988130      -0.39794195       0.31653541
Nb       8.16526188       4.86802802       4.97869307       0.08576745       0.60212702      -0.77478844
Nb       6.75028648       3.12748901       6.64215455      -1.45586562       0.55739409      -0.42965427
Nb       8.46431635       4.65745816       8.25577628      -2.07924223       2.66240764       0.59559000
Nb       6.40805039       6.72636346       0.08584331       1.26158249      -0.77217209      -0.53692526
Nb       8.22576006       8.45723137       1.59205702       0.09028636      -0.70168406       0.47718373
Nb       6.67712949       6.58390576       3.32563753      -0.38437718       0.50675553      -0.26054832
Nb       8.23539237       8.28983040       4.97764926       0.65602452       0.46079838      -0.66500729
Nb       6.92395195       6.71621583       6.51698602      -1.40015793      -0.92392850       0.80961132
Nb       8.16510923       8.31986813       8.37413765       0.86438835      -0.42117077       0.12498611
54
Lattice="9.93 0.0 0.0 0.0 9.93 0.0 0.0 0.0 9.93" Properties=species:S:1:pos:R:3:forces:R:3 group=Nb_rattle10_b9 composition=Nb energy=-537.5242309570312 pbc="T T T"
Nb      -0.00126874      -0.12567263       0.06113568       0.09679605       0.59673429      -0.57749856
Nb       1.59397339       1.64717878       1.83328769       0.57503372      -0.02796633      -1.03198314
Nb      -0.13735577       0.17493513       3.21177937       0.80429363      -0.99452925       0.96416879
Nb       1.80755288       1.65424615       5.11851142      -1.02235079      -0.03471282      -0.40351364
Nb      -0.13141309       0.00228925       6.57883246       0.89158732      -0.11035428       0.23860660
Nb       1.64478114       1.64087939       8.23888101      -0.25970891      -0.34493166       0.68412471
Nb      -0.04120550       3.31140693       0.09306983       0.17778043      -0.42076963      -0.70779663
Nb       1.71248178       4.96551491       1.71321088       0.10677426      -0.04058579      -0.14124742
Nb       0.03418110       3.23830762       3.22415336       0.02565324       0.68195468       1.38902426
Nb       1.83272899       5.09763318       5.02292749      -0.78987068      -0.48310155      -0.43395776
Nb       0.02959336       3.44835906       6.69218661      -0.37156585      -0.85119182      -0.57722557
Nb       1.65311383       4.88273663       8.31913676       0.03894383      -0.01818588       0.56910753
Nb       0.05449972       6.53115759       0.07290693      -0.17320335       0.26749399      -0.49143431
Nb       1.63557960       8.27255291       1.61671612      -0.18192500       0.23806056       0.00058940
Nb       0.00390039       6.53751106       3.27637111       0.10237426       0.55087483       0.86172438
Nb       1.72002521       8.21990798       4.88006536      -0.70008689       0.85034692       0.65346092
Nb       0.21324572       6.60553525       6.68190771      -0.99471080       0.08518121      -0.38136324
Nb       1.72795612       8.08867805       8.29583091      -0.69441277       1.29344559      -0.01509161
Nb       3.46367363      -0.07518379       0.10479553      -1.51937056       1.54937851      -0.86791432
Nb       4.95770755       1.68409951       1.91594191       0.27297360       0.18310823      -1.20983851
Nb       3.27734939       0.04958646       3.27658645      -0.40304053      -0.60026038       0.34317946
Nb       4.79889325       1.56464263       4.81752793       0.78526801       0.35976571       0.67379940
Nb       3.36230231      -0.00063100       6.66685825      -0.71860349      -0.01503438      -0.18084145
Nb       4.94175211       1.78181722       8.00046409      -0.35332355      -0.15160015       1.13618326
Nb       3.29775663       3.32565340       0.25157809       0.11577547      -0.42864043      -0.90345663
Nb       4.99275253       5.03274038       1.70151228       0.17507350       0.35913140      -0.36772493
Nb       3.35263754       3.34752641       3.33597714      -0.46873084       0.48080954       0.30351731
Nb       5.00287237       4.99787303       4.88520048      -0.24130893       0.24081299       0.25789601
Nb       3.12980646       3.43703575       6.65053344       1.07834303      -0.33844471       0.03119598
Nb       5.08451102       4.84488500       8.27680039      -0.52001697       0.10447863       0.23132327
Nb       3.26399277       6.62116514      -0.10204519       0.61074221      -0.48877582       0.78103030
Nb       4.92215800       8.46643371       1.52533093       0.44581616      -1.90271664       1.41944611
Nb       3.11386362       6.81169119       3.27752395       1.54192066      -0.68048364      -0.21790409
Nb       4.96591960       8.24785325       5.06756379       0.25130588      -0.14360511      -0.40980086
Nb       3.33591858       6.62867572       6.77260336       0.53276730      -0.22523874      -0.72368479
Nb       4.79268262       8.39821217       8.27065412       1.32002735      -0.64372677      -0.17104918
Nb       6.51324990      -0.13034117       0.04693218       0.89948100       0.88610345      -0.54621571
Nb       8.34062652       1.76405479       1.69673628      -0.93866372      -0.26407379      -0.61122489
Nb       6.63657189      -0.02601679       3.25733015      -0.16395509       0.01481649       0.47253811
Nb       8.20822663       1.53957890       4.98037238       0.39137399       0.78342992      -0.31267124
Nb       6.64830339       0.09973453       6.63882369      -0.66952384      -1.39271665      -0.43689403
Nb       8.02504730       1.48547405       8.21444040       1.29396677       0.83516300       0.89533877
Nb       6.57900571       3.19535146       0.04895296       0.05396616       0.24189346      -0.05395480
Nb       8.52309991       5.05323899       1.71189029      -1.54598379      -0.45867053      -0.39490765
Nb       6.57776255       3.39231524       3.31840578       0.49635369      -0.10045467      -0.16183735
Nb       8.12635392       4.97806139       5.04434599       1.02489483       0.04224322      -0.58080232
Nb       6.62983375       3.20722536       6.40917603      -0.38886344       0.27212900       0.46173272
Nb       8.24711670       4.83182448       8.17169570       0.29808277      -0.03299832       0.85868120
Nb       6.71739842       6.62298891      -0.12690299      -0.28218892      -0.17803189       0.54293448
Nb       8.31684119       8.36292973       1.77423932      -0.18097216      -0.42181137      -0.62454242
Nb       6.68112611       6.67353856       3.20876529      -0.44590408       0.04261957       0.29407623
Nb       8.27981171       8.26649009       4.96668289       0.00881952      -0.31508589       0.17693374
Nb       6.66176033       6.42639380       6.77029613      -0.22612728       1.16065800      -0.60089940
Nb       8.34837930       8.21118344       8.30725761      -0.16177621      -0.01193420      -0.10333640
54
Lattice="9.93 0.0 0.0 0.0 9.93 0.0 0.0 0.0 9.93" Properties=species:S:1:pos:R:3:forces:R:3 group=Nb_rattle10_b9 composition=Nb energy=-538.0736083984375 pbc="T T T"
Nb       0.10571325      -0.05003576       0.05114464      -0.90372437      -0.27650678       0.05073176
Nb       1.52087443       1.61365405       1.57738545       0.88083100       0.01580936       0.76693964
Nb      -0.01357596       0.09830326       3.36484343       0.20105822      -0.73864555       0.15491615
Nb       1.69734849       1.77505689       4.86252100       0.27279654      -0.79934919       0.73034590
Nb       0.10023644      -0.07272889       6.65840752      -0.11685707       0.21853307      -0.40798086
Nb       1.71855388       1.53427573       8.53320812      -0.54266351       0.04696506      -1.74997032
Nb       0.02509213       3.30993866       0.04363640      -0.50278699       0.40280181      -0.50036192
Nb       1.68956298       4.94414754       1.70846752      -0.11188893       0.54404074      -0.34218097
Nb      -0.01746334       3.27309089       3.27026970      -0.30767274       0.31846109       0.11721902
Nb       1.50334388       5.04819071       4.90346841       0.60184777      -0.63070267       0.99444467
Nb       0.00290881       3.10960127       6.58746442       0.47385818       0.60951710       0.15930527
Nb       1.80384679       5.07863765       8.40404299      -1.17547464      -0.39945915      -0.60957122
Nb      -0.21724117       6.63607916      -0.00522279       0.91477042      -0.10097921      -0.02582519
Nb       1.62694988       8.34406050       1.70834566       0.09597281      -0.65009874       0.00767520
Nb      -0.00437588       6.63610160       3.50805824       0.00378346       0.27973628      -1.10464549
Nb       1.78522690       8.11300309       5.03018330      -0.52356219       1.05544162       0.11691486
Nb      -0.02132610       6.63539879       6.72096661       0.13353419      -0.10450119       0.03405637
Nb       1.71008671       8.44878722       8.28017744      -0.44297916      -1.19020355       0.27789867
Nb       3.48492318      -0.12439096       0.02337477      -0.12720233       0.36777973       0.40918708
Nb       4.93164182       1.58663648       1.69910625      -0.06601238       0.46170577      -0.02511142
Nb       3.26724699      -0.11747163       3.30972683       0.35086867       0.64317483       0.34617534
Nb       5.12816124       1.72615929       5.06047500      -0.81607479      -0.30397138      -0.67763835
Nb       3.32966880      -0.06958942       6.76136559       0.09278637       0.56416333      -1.02568233
Nb       5.08465767       1.61208343       8.22505106      -0.39924100       0.12964566       0.61114937
Nb       3.09602304       3.12769866      -0.13063027       1.63087904       1.15109873       1.33156419
Nb       5.04757385       5.00977764       1.69953540      -0.78693789       0.02296185      -0.30510160
Nb       3.09345991       3.41295766       3.36827082       1.08531988      -0.44413429      -0.47508353
Nb       4.87348870       4.99903821       4.87405830       0.30953383      -0.29456815       0.59388208
Nb       3.43529406       3.21260310       6.71927406      -0.82017422       0.26762566      -0.59320188
Nb       4.76621980       4.99277929       8.30471051       0.97242129       0.02079409       0.02559770
Nb       3.30131867       6.68914913      -0.02585319       0.01565463      -0.13508156       0.85693467
Nb       5.12595862       8.34783131       1.66119180      -0.29837710      -0.44833380      -0.08722611
Nb       3.36069204       6.70032847       3.42387913      -0.09601726      -0.33043665      -0.97198969
Nb       5.03844473       8.18364135       5.00962127      -0.30378848       0.75254112      -0.09773873
Nb       3.29280447       6.59002999       6.64231871       0.06877743      -0.16787273      -0.08963093
Nb       4.88901165       8.23515752       8.24621861       0.80334139      -0.08742806       0.24690759
Nb       6.71562658       0.17177018      -0.06305931      -0.03216505      -0.41060901       0.55623591
Nb       8.43485093       1.68068358       1.67487711      -1.07512069      -0.09007373      -0.27669412
Nb       6.66831899      -0.05074725       3.25679410      -0.13106182       0.45047635       0.17495936
Nb       8.27894868       1.54459787       4.96250092      -0.05172056       0.52685344      -0.03948714
Nb       6.58163958       0.03671730       6.56827020       0.25703984      -0.22029561       0.06798105
Nb       8.36106253       1.55061842       8.18495222      -0.05056825       0.48639232       0.40442973
Nb       6.51028070       3.48622789      -0.03197611       0.29282403      -0.65948308       0.03841759
Nb       8.24935026       4.96827568       1.62165557       0.24642265      -0.36575538       0.20215578
Nb       6.46900001       3.32154135       3.25176783       0.50764441      -0.13802329       0.19111192
Nb       8.35108524       4.90657383       4.79856972      -0.70896077      -0.23278940       0.73848367
Nb       6.55909237       3.36837812       6.76838481       0.30287904       0.18881865      -0.81468213
Nb       8.33740898       4.83846491       8.02656441      -0.05959532       0.44511279       0.78566879
Nb       6.79130633       6.57816116       0.05571195      -0.81191134       0.24327657      -0.58100784
Nb       8.26835632       8.14081164       1.78767052       0.28945962       0.73385537      -0.29593548
Nb       6.64528677       6.66634527       3.41030728      -0.02860345      -0.39424413      -0.28483942
Nb       8.29643272       8.29018989       5.03331665       0.26186141       0.15884766      -0.05199938
Nb       6.67444969       6.78963786       6.59726196      -0.15054710      -1.08218920       0.40205055
Nb       8.17890292       8.39456896       8.30329391       0.37552279      -0.41069454       0.04024594
16
Lattice="6.62 0.0 0.0 0.0 6.62 0.0 0.0 0.0 6.62" Properties=species:S:1:pos:R:3:forces:R:3 group=Nb_rattle18_b2 composition=Nb energy=-153.2570343017578 pbc="T T T"
Nb      -0.26603951       0.08062508      -0.30083966       1.99844718       1.16340041       2.04080176
Nb       1.33030094       1.74614394       1.56088963       2.06643915      -1.39973116      -0.24069704
Nb       0.04483827       0.19845887       3.50567593       0.30323231      -2.15604806      -1.75232863
Nb       1.56847317       1.95651822       4.88103742       1.03623939      -4.37436867       1.50469327
Nb       0.07726910       3.44927270       0.02528131      -2.45776367      -2.23488522       1.97453165
Nb       2.00101970       4.94491536       1.29561274      -3.92598605       3.33349490       4.19584846
Nb      -0.00208281       3.14544133       3.26574543      -1.49399459       1.85889804      -1.76807058
Nb       1.35542140       4.41136141       4.84969500       2.67859173       7.31889868      -0.49183187
Nb       3.39550971       0.23912817       0.09297560      -0.71554005      -0.10134107      -1.16137588
Nb       4.84867542       2.00308445       1.75480025      -0.08349967      -1.41157484      -1.78643107
Nb       3.32959223       0.29267701       3.16523197      -1.62347031      -3.02631474      -0.01301885
Nb       4.69938745       1.63343307       4.64521915       1.84203386       0.63303876       3.65236378
Nb       3.20185838       3.51540224       0.13114884       2.94032717      -3.36682296      -2.38434458
Nb       5.04211149       4.97641968       1.59917313       0.53118819       1.30500853       1.37131166
Nb       3.36528241       3.42549237       3.57279277      -0.14720437       1.76764727      -2.70025206
Nb       5.20431092       4.85932041       5.16575899      -2.94904065       0.69070077      -2.44120002
16
Lattice="6.62 0.0 0.0 0.0 6.62 0.0 0.0 0.0 6.62" Properties=species:S:1:pos:R:3:forces:R:3 group=Nb_rattle18_b2 composition=Nb energy=-157.08636474609375 pbc="T T T"
Nb       0.41993266      -0.16714056       0.07114556      -4.20114708       4.44662094      -2.42685890
Nb       1.64353983       1.91039723       1.85074901       0.23319411      -0.82104909      -0.55165070
Nb      -0.09836790       0.05386303       3.26576996       1.34478724      -1.05910885       0.83099329
Nb       1.80643310       1.64521672       5.02181036      -1.26618159       0.25412825      -0.83345246
Nb      -0.04257852       3.51344704       0.10937870      -1.24359798      -2.54174852      -1.58645225
Nb       1.25505826       4.99849062       1.52085254       4.00587177      -1.90360725       4.93819904
Nb      -0.20784441       3.22637703       3.38731035       0.55235887       1.36431623       0.27098972
Nb       1.75900364       4.98527557       5.03146035      -0.45354545      -0.38292670      -1.59087729
Nb       3.14444854       0.20317113      -0.01603401       1.58103347      -0.47270226       0.43895799
Nb       5.10819880       1.54285842       1.75585396      -0.89783740       1.09576154      -1.66774702
Nb       3.47497461      -0.12703060       3.13636704      -2.26888514       1.32871032       1.49720252
Nb       5.09131557       1.56036970       4.89493831      -0.31895262       0.20425606       1.41189194
Nb       3.29200208       3.27689661      -0.10834466       0.34991717       0.21263415       1.09256721
Nb       4.60446952       5.06029189       1.59458903       1.49370241      -1.45990431      -0.78116655
Nb       3.20559200       3.34732444       3.47413643       0.52723515      -0.12737328      -1.04723704
Nb       4.89804747       5.05659949       5.04339893       0.56204706      -0.13800456       0.00464032
16
Lattice="6.62 0.0 0.0 0.0 6.62 0.0 0.0 0.0 6.62" Properties=species:S:1:pos:R:3:forces:R:3 group=Nb_rattle18_b2 composition=Nb energy=-153.95362854003906 pbc="T T T"
Nb       0.05790970       0.10551912      -0.04007180       0.63486093       2.02454615       2.12597013
Nb       1.78816513       1.63108135       1.64233762      -0.05664322       0.62425113      -0.09033352
Nb       0.02995204      -0.20070416       3.34990237       0.95231599       3.23405886      -1.28455687
Nb       1.63884939       1.92449413       4.79970680      -0.75494641      -6.89706326       5.67457199
Nb       0.18521868       3.53211867       0.24982445      -1.30911779      -2.60336924       0.02059606
Nb       1.40628402       5.09467043       1.82062537       2.91627812      -1.23084497       0.34677464
Nb       0.11788189       3.13459120       3.70287070      -4.26777411       1.93329525      -3.52125764
Nb       1.57393459       5.03610466       5.29171495       2.65736818       0.50666165      -1.39278913
Nb       3.42370357      -0.18848614       0.07627532      -1.00001311       0.41700774       0.64799267
Nb       5.17228280       1.68548829       1.72017856      -0.74284971       0.22224729       0.17628278
Nb       3.35230111       0.10395274       3.31999261      -1.61195517      -2.33933640      -1.31063104
Nb       4.70368845       1.11321872       4.94280640       2.47204208       3.91905332       1.30402303
Nb       3.51829718       3.26198122       0.05197840       0.05358041       0.25527799       0.70469224
Nb       4.90329869       4.99756141       1.79399083      -0.17498836      -0.99428570       0.40583256
Nb       3.17893824       3.19799949       3.87885986       5.27107525       4.47035074      -4.47221804
Nb       5.55680176       5.16706230       5.02311026      -5.03923416      -3.54185057       0.66504997
16
Lattice="6.62 0.0 0.0 -0.00982507825781407 6.62 0.0 0.0 0.0 6.62" Properties=species:S:1:pos:R:3:forces:R:3 group=Nb_strain_shear_b0 composition=Nb energy=-160.27227783203125 pbc="T T T"
Nb      -0.03206683       0.03599558      -0.02987125       0.13883327      -0.15261197       0.28089771
Nb       1.62602882       1.68298608       1.65806472      -0.00138491      -0.13774772      -0.08225114
Nb      -0.04449743      -0.04792568       3.32755948       0.16278727       0.21270388      -0.15359052
Nb       1.64077686       1.58690344       4.94726282      -0.01802588       0.37451431       0.08053795
Nb      -0.04709388       3.29590057       0.03559252       0.15484178       0.06877756      -0.04470035
Nb       1.64920363       4.97215768       1.66413333      -0.00286415       0.02728458      -0.15129977
Nb      -0.02775490       3.30501569       3.34211462       0.06930479      -0.12123464      -0.05435659
Nb       1.57290182       5.00579254       4.93217701       0.33558661      -0.25015771       0.21228948
Nb       3.34667513       0.02621703       0.00956011      -0.21899948      -0.16048533       0.02314804
Nb       4.94407979       1.56646583       1.70350542       0.05601752       0.32958579      -0.14300683
Nb       3.31251861       0.03976378       3.33648938      -0.12889811      -0.26316911      -0.08277916
Nb       4.95117636       1.68740236       4.96984039       0.00384167      -0.02041984       0.01772161
Nb       3.31862222       3.31254954      -0.04351936      -0.18075600       0.08797021       0.09590699
Nb       4.95540486       4.91978963       1.71411056      -0.08200240       0.03690538      -0.23026083
Nb       3.27966497       3.28818576       3.27691944      -0.03283578       0.13381973       0.16318035
Nb       4.96937773       4.99406122       4.97941211      -0.25544637      -0.16573507       0.06856315
16
Lattice="6.62 0.0 0.0 0.0 6.62 0.0 0.0 -0.03609322736356358 6.62" Properties=species:S:1:pos:R:3:forces:R:3 group=Nb_strain_shear_b0 composition=Nb energy=-160.3062744140625 pbc="T T T"
Nb      -0.00567094      -0.02141818       0.01960086      -0.07090484       0.10188763      -0.15544835
Nb       1.70051110       1.64131830       1.64317963      -0.07665915       0.11494986      -0.02426220
Nb       0.02808133       0.04330503       3.32390354      -0.05687527      -0.17230015       0.07554325
Nb       1.68885253       1.65456285       4.95582948      -0.14137715      -0.15302764       0.09752177
Nb       0.01507851       3.33387109      -0.02624314      -0.00318539      -0.08842480       0.12950659
Nb       1.65824845       5.01391587       1.64508322      -0.03496563      -0.21593288       0.06781668
Nb       0.04903617       3.28593683       3.32374865      -0.10378212       0.06860149      -0.07913090
Nb       1.66520232       4.91165550       4.96126043      -0.06777444       0.20132297       0.05600125
Nb       3.30133007      -0.00576131       0.00292581       0.12257168      -0.02751157      -0.02669752
Nb       5.02186862       1.65912705       1.65955622      -0.05306202      -0.05753947      -0.02221615
Nb       3.34229343      -0.03008441       3.29563039      -0.09046662       0.09074590       0.08754677
Nb       4.89434608       1.64824067       4.95613676       0.33948290      -0.15758738       0.08139008
Nb       3.35239738       3.30230565       0.05257559      -0.14395943       0.05968615      -0.04590763
Nb       4.95248321       4.92830796       1.74155149       0.19720945       0.12272657      -0.26654664
Nb       3.30246904       3.30138021       3.32349662      -0.00132582      -0.07571484      -0.11194331
Nb       4.92909322       4.90157734       4.96150459       0.18507363       0.18811832       0.13682626
16
Lattice="6.62 0.0 0.0 0.0 6.62 0.0 0.0 0.03621521527979276 6.62" Properties=species:S:1:pos:R:3:forces:R:3 group=Nb_strain_shear_b0 composition=Nb energy=-160.27301025390625 pbc="T T T"
Nb      -0.03861461      -0.05685763      -0.06549093       0.22755235       0.31028476       0.37668821
Nb       1.65705306       1.65774374       1.67649109       0.01903683      -0.07649611      -0.00174067
Nb      -0.03570365       0.01724725       3.33435775       0.20336962       0.11559425      -0.24087237
Nb       1.66758880       1.71021685       4.98059451      -0.09520896      -0.12705107      -0.07254830
Nb       0.03756141       3.32435425       0.02418742      -0.18796492      -0.21568644      -0.11819157
Nb       1.68049154       4.98902377       1.71148184       0.06496301       0.11805462      -0.10873345
Nb       0.05393486       3.36723758       3.25778599      -0.10527423      -0.22138861       0.26229230
Nb       1.60938076       4.98425152       4.99743286       0.31548822       0.08978409      -0.10047979
Nb       3.32690829       0.00575057       0.00623919      -0.15877408      -0.05075581       0.06590962
Nb       4.98056004       1.68720401       1.61920875      -0.01145869      -0.09667454       0.03454298
Nb       3.31651796       0.02620961       3.32548106      -0.05286190      -0.04198721      -0.05398398
Nb       4.96413133       1.62822480       4.93519644       0.03095016       0.34201330       0.08224496
Nb       3.24029934       3.31132194       0.02251761       0.32827914       0.04591994       0.01441400
Nb       5.01255860       4.95166474       1.65211516      -0.22154582       0.11101960       0.00832551
Nb       3.37318528       3.34486195       3.35116387      -0.08898783      -0.01772171      -0.05520462
Nb       4.99550745       4.99991669       4.99245491      -0.26756305      -0.28490925      -0.09266285
16
Lattice="6.32497402953169 0.0 0.0 0.0 6.32497402953169 0.0 0.0 0.0 6.32497402953169" Properties=species:S:1:pos:R:3:forces:R:3 group=Nb_strain_vol_b0 composition=Nb energy=-156.15830993652344 pbc="T T T"
Nb      -0.01472014       0.03300687      -0.07696105      -0.08865422      -0.03500927       0.52887189
Nb       1.52091363       1.57321601       1.63147090       0.34483430       0.23229562      -0.27867812
Nb       0.01138274       0.00681096       3.14562379      -0.26323363       0.10066587       0.07925469
Nb       1.61741502       1.53221657       4.81672956      -0.30735791       0.65158105      -0.67334509
Nb       0.00224877       3.23343783      -0.02239201       0.15798473      -0.48613703       0.07438996
Nb       1.59813410       4.79890222       1.59605446      -0.10359418      -0.14784271      -0.47288573
Nb       0.00324742       3.17744899       3.08690681      -0.17996287      -0.13103974       0.49867207
Nb       1.56849758       4.74413043       4.64589055       0.13572037      -0.03996209       0.66254294
Nb       3.13214407       0.03683829       0.01448152       0.14609516      -0.29521444      -0.07053613
Nb       4.68533002       1.58702641       1.63152641       0.33810222       0.16043279      -0.53712094
Nb       3.22489620      -0.00654971       3.17563211      -0.30475903       0.14437771       0.04076290
Nb       4.71668190       1.61374078       4.75895963       0.35580689       0.05862296      -0.08855835
Nb       3.16071344       3.19172462      -0.00157563      -0.30464697      -0.02345765       0.15448774
Nb       4.73690017       4.78088324       1.50872073       0.13224995      -0.06568727       0.36737728
Nb       3.15223436       3.19823116       3.16392749       0.01762247      -0.26771915      -0.08630747
Nb       4.74943879       4.73655219       4.73802142      -0.07620725       0.14409247      -0.19892791
16
Lattice="6.671410985874799 0.0 0.0 0.0 6.671410985874799 0.0 0.0 0.0 6.671410985874799" Properties=species:S:1:pos:R:3:forces:R:3 group=Nb_strain_vol_b0 composition=Nb energy=-160.3184051513672 pbc="T T T"
Nb      -0.01261154       0.03999722       0.01142950       0.05101587      -0.13232923      -0.16277742
Nb       1.60928035       1.66648560       1.69641351       0.17978638       0.11529212      -0.05013607
Nb      -0.03345703       0.02046091       3.29380606       0.10080655      -0.02717346       0.24280813
Nb       1.68021682       1.68318206       5.05064659      -0.12958539      -0.12572828      -0.14613287
Nb       0.02857225       3.32463959      -0.02396007      -0.16246825       0.12322931       0.11394419
Nb       1.72144138       5.07723128       1.65370921      -0.17365515      -0.26239327      -0.03902024
Nb       0.05977176       3.31896961       3.35161229      -0.27217132       0.09811051      -0.05836228
Nb       1.66313808       5.01590394       4.98997852       0.01422447       0.09157381       0.07312911
Nb       3.35006019       0.00642202       0.01025180      -0.12966350      -0.09454840      -0.09028606
Nb       4.95579279       1.62453516       1.65991252       0.03900364       0.32868892       0.07367613
Nb       3.33300503      -0.02475685       3.30950848      -0.09392586       0.12969190       0.14866897
Nb       4.90997712       1.62436628       5.00306996       0.28161281       0.18883602      -0.08349017
Nb       3.33048743       3.31077352      -0.00884614       0.07224774       0.15645368       0.10556702
Nb       5.03860502       5.05050078       1.67461840       0.02238705      -0.33882368      -0.09062903
Nb       3.30430157       3.36834440       3.34102006       0.17195894      -0.11112821      -0.08899510
Nb       5.01930660       5.01594484       4.98735334       0.02842608      -0.13975169       0.05203563
16
Lattice="6.905284292401759 0.0 0.0 0.0 6.905284292401759 0.0 0.0 0.0 6.905284292401759" Properties=species:S:1:pos:R:3:forces:R:3 group=Nb_strain_vol_b0 composition=Nb energy=-158.7353057861328 pbc="T T T"
Nb      -0.00544388      -0.02572897      -0.03036758      -0.06203912       0.04856596       0.09863243
Nb       1.72157888       1.71350965       1.71135503       0.04605182       0.09442768       0.00389299
Nb       0.04573247       0.06079495       3.45587954      -0.14501411      -0.11658353      -0.06498477
Nb       1.67530158       1.72976136       5.15811323       0.11300296       0.02970707       0.05329547
Nb      -0.00478981       3.44761386       0.01301787      -0.00896879       0.01232266      -0.01576677
Nb       1.80963153       5.23287005       1.70313738      -0.16684306      -0.14279839       0.02896598
Nb       0.01445168       3.44666451       3.44923465      -0.06088233       0.08213502      -0.00294977
Nb       1.67461201       5.18310662       5.14341814       0.12299392      -0.02314974       0.04645658
Nb       3.37964803       0.00571359       0.03642322       0.17080110      -0.00539197      -0.06949108
Nb       5.20322306       1.76586189       1.73329623      -0.07724993      -0.02719164       0.01195502
Nb       3.41990564      -0.01590578       3.49182738       0.11662638       0.04823360      -0.01822533
Nb       5.20131993       1.74243274       5.20863214      -0.07024210       0.00214310      -0.05219778
Nb       3.45709682       3.44564117      -0.04157128       0.00986722       0.04279990       0.08956343
Nb       5.14085138       5.21635085       1.76281406       0.09529308      -0.02310873      -0.05837652
Nb       3.44917851       3.44707307       3.46974488       0.04027383       0.00300658      -0.05755815
Nb       5.21732507       5.19058448       5.18739747      -0.12367137      -0.02511737       0.00678820
16
Lattice="6.69 0.0 0.0 0.0 6.69 0.0 0.0 0.0 6.69" Properties=species:S:1:pos:R:3:forces:R:3 group=Ti2ZrNb_md1400_b1 composition=Ti2ZrNb energy=-136.6655731201172 pbc="T T T"
Nb       0.00000000       0.00000000       0.00000000      -0.30244154      -0.00000283      -0.00000210
Zr       1.67250000       1.67250000       1.67250000      -0.01280525       0.06707709      -0.31878036
Nb       0.00000000       0.00000000       3.34500000      -0.29576668      -0.00000443       0.00000268
Ti       1.67250000       1.67250000       5.01750000       0.00781981       0.01995809       0.23498610
Ti       0.00000000       3.34500000       0.00000000      -0.21676263       0.00000015      -0.00000048
Ti       1.67250000       5.01750000       1.67250000       0.00782217      -0.01995908      -0.23498932
Zr       0.00000000       3.34500000       3.34500000      -0.29794884      -0.00000054      -0.00000086
Zr       1.67250000       5.01750000       5.01750000      -0.01279938      -0.06707091       0.31877768
Nb       3.34500000       0.00000000       0.00000000       0.29403117      -0.00000437      -0.00000406
Ti       5.01750000       1.67250000       1.67250000      -0.00342131       0.01108260      -0.23663890
Zr       3.34500000       0.00000000       3.34500000       0.30633020      -0.00000419       0.00000212
Ti       5.01750000       1.67250000       5.01750000      -0.00228547       0.00111595       0.24390931
Ti       3.34500000       3.34500000       0.00000000       0.23718922       0.00000184       0.00000091
Ti       5.01750000       5.01750000       1.67250000      -0.00228464      -0.00111307      -0.24390583
Nb       3.34500000       3.34500000       3.34500000       0.29674250       0.00000156       0.00000185
Ti       5.01750000       5.01750000       5.01750000      -0.00341955      -0.01107770       0.23664141
16
Lattice="6.69 0.0 0.0 0.0 6.69 0.0 0.0 0.0 6.69" Properties=species:S:1:pos:R:3:forces:R:3 group=Ti2ZrNb_md1400_b1 composition=Ti2ZrNb energy=-135.56544494628906 pbc="T T T"
Nb       0.16230797       0.08227056       0.03715647      -0.94563639      -0.53389531      -0.35197970
Zr       1.54145577       1.65355392       1.65966919       0.53792107       0.15156311      -0.23710656
Nb      -0.01946183       0.08501954       3.27192352      -0.57219207      -0.51205605       0.53904563
Ti       1.63287119       1.78061830       4.97719404       0.13985407      -0.48232543       0.21392302
Ti       0.00033954       3.32172278      -0.04406889      -0.01614016       0.26725557       0.29582134
Ti       1.52694635       4.76483598       1.89139320       1.05365562       1.16259980      -1.28394353
Zr       0.07855881       3.35420988       3.22413996      -1.44798160      -0.05367468       0.93312842
Zr       1.75489265       4.99908155       5.13277489      -0.27370560       0.12622496       0.20586210
Nb       3.32933833       0.10006746       0.09289211       0.37702647      -0.21547419      -0.35628897
Ti       4.82355726       1.70298783       1.69769444       0.67181969      -0.07642820      -0.25842720
Zr       3.30948831      -0.03667512       3.27900226       0.46986634      -0.22439843       0.46239030
Ti       5.28716788       1.92326519       5.11225362      -0.54442191      -0.96790671      -0.13211140
Ti       3.37987676       3.13296673      -0.05310535      -0.15014312       0.32495826       0.42984480
Ti       5.10035742       5.02919119       1.50928201      -0.29522267       0.02360447       0.08163842
Nb       3.39645172       3.16974064       3.46791430       0.28349692       0.38984293      -0.27075824
Ti       4.79778714       4.84402479       5.24040323       0.71180326       0.62010980      -0.27103850
16
Lattice="6.69 0.0 0.0 0.0 6.69 0.0 0.0 0.0 6.69" Properties=species:S:1:pos:R:3:forces:R:3 group=Ti2ZrNb_md1400_b1 composition=Ti2ZrNb energy=-135.5539093017578 pbc="T T T"
Nb       0.15208920       0.06550261       0.05513393      -1.10895777      -0.72797936      -0.63424462
Zr       1.49151149       1.57204041       1.62386602       0.64217496       0.73418128       0.47042361
Nb      -0.06298574       0.05350091       3.28321562      -0.41797224      -0.48959258       0.60624546
Ti       1.68562499       1.74814579       5.02804653      -0.04553618      -0.36341953      -0.07930314
Ti       0.07320647       3.32928519       0.00154740      -0.23641828       0.35581985       0.13570172
Ti       1.60012959       4.80419848       1.87567704       0.73467571       0.62168121      -0.81604409
Zr       0.02724865       3.35261586       3.21428655      -0.86231565       0.19894204       0.76443416
Zr       1.76347378       5.01191765       5.24186843      -0.19851035       0.02228856      -0.15424913
Nb       3.29677533       0.17557699       0.14533254       0.54200619      -0.53439283      -0.65981442
Ti       4.81797821       1.74760152       1.62466057       0.90074110      -0.17002024       0.09901639
Zr       3.34922903      -0.06115030       3.22553387       0.38062716      -0.18365023       0.68657887
Ti       5.37571462       1.85870896       5.15741099      -0.66555804      -0.73364037      -0.13048097
Ti       3.40285119       3.06805687       0.01430849      -0.22387685       0.61955619       0.13844064
Ti       5.08891468       5.10740369       1.43220910      -0.23270002      -0.25231534       0.27642405
Nb       3.46850382       3.08961252       3.53439186      -0.01454544       0.54620332      -0.34373817
Ti       4.74656769       4.91795537       5.31089975       0.80616558       0.35633802      -0.35939056
16
Lattice="6.69 0.0 0.0 0.0 6.69 0.0 0.0 0.0 6.69" Properties=species:S:1:pos:R:3:forces:R:3 group=Ti2ZrNb_md600_b0 composition=Ti2ZrNb energy=-136.59091186523438 pbc="T T T"
Ti       0.00000000       0.00000000       0.00000000       0.08965526      -0.10602064      -0.32858917
Zr       1.67250000       1.67250000       1.67250000      -0.21579786      -0.15584970      -0.09961997
Ti       0.00000000       0.00000000       3.34500000       0.08929383      -0.11305505       0.34180242
Nb       1.67250000       1.67250000       5.01750000      -0.17730416      -0.14934371       0.12848282
Ti       0.00000000       3.34500000       0.00000000       0.09009294       0.11218634      -0.34649116
Nb       1.67250000       5.01750000       1.67250000      -0.18593137       0.14912270      -0.12174451
Ti       0.00000000       3.34500000       3.34500000       0.07621354       0.10386541       0.32569557
Ti       1.67250000       5.01750000       5.01750000      -0.11103884       0.12333906       0.13352765
Nb       3.34500000       0.00000000       0.00000000      -0.06963117      -0.14419590      -0.44289035
Zr       5.01750000       1.67250000       1.67250000       0.19656980      -0.14645210      -0.09509130
Ti       3.34500000       0.00000000       3.34500000      -0.07495274      -0.10587679       0.33316490
Ti       5.01750000       1.67250000       5.01750000       0.10879141      -0.12210109       0.12896627
Nb       3.34500000       3.34500000       0.00000000      -0.06712317       0.14108294      -0.42834124
Zr       5.01750000       5.01750000       1.67250000       0.19765073       0.15009275      -0.09792791
Zr       3.34500000       3.34500000       3.34500000      -0.04411850       0.15024447       0.43973246
Ti       5.01750000       5.01750000       5.01750000       0.09763031       0.11296135       0.12932374
16
Lattice="6.69 0.0 0.0 0.0 6.69 0.0 0.0 0.0 6.69" Properties=species:S:1:pos:R:3:forces:R:3 group=Ti2ZrNb_md600_b0 composition=Ti2ZrNb energy=-136.17401123046875 pbc="T T T"
Ti      -0.08331396       0.00698254      -0.13346092       0.41835478      -0.17757249      -0.04485724
Zr       1.72401775       1.74628998       1.63055031      -0.51355845      -0.64347959      -0.01118679
Ti      -0.01584542       0.05637493       3.41305353      -0.15311174       0.01422510      -0.04580962
Nb       1.68224655       1.56924442       5.02840393      -0.30075052       0.24144584       0.11661457
Ti      -0.05989498       3.40050466       0.06550669       0.35624340      -0.24120778      -0.65476418
Nb       1.58073973       4.93960207       1.64055279       0.08172652       0.62216866       0.04218686
Ti       0.06977373       3.29714504       3.24855791      -0.25214207      -0.04736975       0.53068334
Ti       1.50995875       5.19119079       4.82396094       0.26696551      -0.50849098       0.53754646
Nb       3.29728616      -0.10459250       0.06926630      -0.23436451      -0.26326823      -0.65647167
Zr       5.00704679       1.55503465       1.51445860       0.17984825       0.21671163       0.36352861
Ti       3.24503182       0.11410834       3.39869950       0.25218496      -0.53955626       0.04457564
Ti       4.92680421       1.54242831       5.13706582       0.14060789       0.24699390      -0.19382313
Nb       3.19638411       3.31203547      -0.00215221       0.25766754       0.43678948      -0.62052447
Zr       5.10735647       5.04466573       1.58558024      -0.27910680      -0.01268287       0.38668710
Zr       3.38835070       3.31683950       3.39458711       0.03039519       0.31681058       0.35469037
Ti       5.13806092       4.82314575       5.07418325      -0.25095978       0.33848265      -0.14907585
16
Lattice="6.69 0.0 0.0 0.0 6.69 0.0 0.0 0.0 6.69" Properties=species:S:1:pos:R:3:forces:R:3 group=Ti2ZrNb_md600_b0 composition=Ti2ZrNb energy=-135.9602813720703 pbc="T T T"
Ti      -0.08573994       0.00260470      -0.32224155       0.34232938      -0.20499158       0.56932592
Zr       1.68336009       1.70767393       1.59933215      -0.20115104      -0.51299185       0.04517831
Ti      -0.05778483       0.07453785       3.49945248      -0.31680375       0.14705959      -0.41050506
Nb       1.65880971       1.51338128       5.03263071      -0.10050982       0.44926599      -0.01420845
Ti      -0.03862570       3.39122184      -0.00409304       0.26642960      -0.42643726      -0.42187947
Nb       1.49200342       4.97891448       1.58558329       0.26161456       0.42713356       0.17379858
Ti       0.12973849       3.28031684       3.25466493      -0.42642921      -0.15846100       0.41203576
Ti       1.38659879       5.20370363       4.76429757       0.68881875      -0.82888514       0.57148033
Nb       3.25325862      -0.23510995       0.05249036      -0.16575027      -0.02664456      -0.61871898
Zr       5.05504019       1.44216586       1.46595045      -0.12885423       0.57981908       0.44086361
Ti       3.20596770       0.05522388       3.39295160       0.34013116      -0.40951866      -0.06858693
Ti       4.86500780       1.48331763       5.18871237      -0.03930929       0.44305924      -0.35890645
Nb       3.06981406       3.32929364      -0.11129417       0.46970099       0.27380395      -0.12265263
Zr       5.16529518       5.07248812       1.61385668      -0.39988929      -0.28166461       0.32948443
Zr       3.42957286       3.34731181       3.47730088      -0.10870384       0.11938936      -0.16358133
Ti       5.17944268       4.74574991       5.14275719      -0.48162398       0.41006362      -0.36312768
16
Lattice="6.69 0.0 0.0 0.0 6.69 0.0 0.0 0.0 6.69" Properties=species:S:1:pos:R:3:forces:R:3 group=Ti2ZrNb_rattle05_b0 composition=Ti2ZrNb energy=-136.31214904785156 pbc="T T T"
Ti      -0.07454525      -0.01981135       0.05013851      -0.03988208      -0.14156130      -0.24124177
Zr       1.59722104       1.61369512       1.68788989      -0.14102796       0.13800909      -0.44783539
Ti      -0.03183560      -0.05962340       3.28307227      -0.16390076      -0.09129498       0.39927143
Nb       1.57182001       1.64361084       4.90069608      -0.30963364       0.11552486       0.54478383
Ti       0.01933689       3.35094968       0.05994623      -0.16574985       0.13216309      -0.26063764
Nb       1.62776959       5.03905753       1.71019004      -0.28632826      -0.18776889      -0.33060560
Nb       0.03416328       3.33953931       3.32518393      -0.30885786       0.26019228       0.32927340
Ti       1.74583094       5.07413142       5.04701618      -0.61536270      -0.25369984       0.09116282
Zr       3.36703216       0.01317492      -0.00586035       0.13092297      -0.11688026      -0.05429486
Nb       5.03960809       1.58540089       1.72934830       0.21852946       0.26368701      -0.27149484
Zr       3.33839730      -0.05629973       3.38800861       0.22518489       0.03996919       0.09173857
Ti       4.97240759       1.73095080       5.05048036       0.45777062       0.04230867       0.02541706
Ti       3.27856522       3.34586860      -0.05964169       0.08883559       0.00111696       0.08497475
Ti       4.95829099       4.94526161       1.78819461       0.41092128      -0.01701614      -0.48639810
Zr       3.33301361       3.32061274       3.25720115       0.09971747       0.03175589       0.39577377
Ti       4.97290863       5.00851038       5.02388497       0.39886060      -0.21650559       0.13011266
16
Lattice="6.69 0.0 0.0 0.0 6.69 0.0 0.0 0.0 6.69" Properties=species:S:1:pos:R:3:forces:R:3 group=Ti2ZrNb_rattle05_b0 composition=Ti2ZrNb energy=-136.4976348876953 pbc="T T T"
Ti      -0.01298578       0.04548690       0.05513356       0.16439910      -0.36703902      -0.32456046
Ti       1.62639114       1.63416257       1.63235504       0.32633159      -0.28730050       0.06664633
Ti      -0.00559278      -0.06884611       3.37033520       0.13449001      -0.01824022       0.10096689
Ti       1.68509607       1.63151665       5.04588014       0.13586374      -0.31704518      -0.06520318
Zr       0.03397876       3.24704086      -0.00074521       0.10168827       0.40405697      -0.23885541
Ti       1.69037818       4.99568107       1.65705782      -0.04144806       0.39841548      -0.28454232
Zr      -0.05542716       3.33848905       3.32608947       0.21960485       0.08717191       0.22384953
Nb       1.68310348       4.99196400       4.95538191      -0.10486192       0.46577471       0.38160256
Ti       3.40603180      -0.03003370      -0.05671522      -0.28889570      -0.08846138       0.03124409
Zr       5.05878722       1.69758736       1.69650152      -0.23259038      -0.48870349      -0.03777872
Nb       3.32802187      -0.02960655       3.27432735      -0.15179016       0.10718984       0.17291844
Ti       4.99595809       1.62905468       5.02728266      -0.08541552      -0.21536577      -0.07098134
Nb       3.39337216       3.30737517      -0.00080846      -0.27421013       0.14185008      -0.13682222
Ti       5.03646718       5.04335166       1.63518491      -0.05969203       0.21790519      -0.09867753
Zr       3.28969218       3.46118488       3.32811286      -0.05271205      -0.38860875       0.08220339
Nb       4.95441342       5.03718004       5.02329923       0.20923862       0.34840006       0.19798994
16
Lattice="6.69 0.0 0.0 0.0 6.69 0.0 0.0 0.0 6.69" Properties=species:S:1:pos:R:3:forces:R:3 group=Ti2ZrNb_rattle05_b0 composition=Ti2ZrNb energy=-136.53878784179688 pbc="T T T"
Ti      -0.03418093      -0.03341895      -0.05513551      -0.12035397      -0.03108700       0.24431376
Nb       1.55666360       1.70099169       1.68014184      -0.03385615      -0.32957864       0.19891638
Nb      -0.00556801      -0.10519627       3.35574373      -0.13930422       0.05542944      -0.04802514
Zr       1.70521520       1.73204965       5.09072263      -0.29073030      -0.32306236      -0.35452858
Ti       0.03180811       3.38455625       0.01796637      -0.34507713       0.06790763       0.02764230
Zr       1.66092782       4.99830978       1.64599321      -0.19993985       0.12069009       0.26391709
Ti      -0.06519854       3.32812604       3.30908295       0.01225811       0.14796157      -0.02288002
Ti       1.69160306       5.06326148       5.00279740      -0.17248939      -0.06976975      -0.17854501
Ti       3.25728448      -0.09543405       0.07960445       0.26229274       0.23249641      -0.09423056
Nb       4.91087799       1.66364178       1.67914235       0.35620335      -0.24964494       0.01770228
Ti       3.37947408      -0.05119267       3.34766781      -0.11888921       0.07421095      -0.09465982
Zr       5.00596184       1.69327621       4.99520465       0.25294811      -0.30029440      -0.01776223
Zr       3.36255177       3.32000584      -0.06476041       0.12258112       0.31328192       0.24921906
Ti       4.95537804       5.04193810       1.72047620       0.25877926      -0.00556803      -0.01199349
Nb       3.34514892       3.32224234       3.31026861       0.02239904       0.23831268      -0.03407165
Ti       4.99692812       5.02465553       5.01484120       0.13317858       0.05871429      -0.14501441
16
Lattice="6.69 0.0 0.0 0.0 6.69 0.0 0.0 0.0 6.69" Properties=species:S:1:pos:R:3:forces:R:3 group=Ti2ZrNb_rattle10_b1 composition=Ti2ZrNb energy=-135.89935302734375 pbc="T T T"
Ti      -0.17938727      -0.20104778       0.08794087       0.42613664       0.67445612      -0.49453864
Ti       1.51858744       1.78687123       1.68823685       1.00756252      -0.71017873      -0.79903823
Nb      -0.00619477       0.02626747       3.19444029       0.23422953      -0.43119526       0.65799224
Ti       1.55387645       1.52498631       4.92731678       0.29729220      -0.00059338       0.58374429
Nb      -0.05176996       3.23799489      -0.00117985       0.31187707      -0.11403453      -0.60649508
Zr       1.69843812       5.03945794       1.65061401       0.45523366       0.27447176      -0.21050590
Zr       0.16198618       3.18671735       3.33022956      -0.34457874       0.90783274       0.98354274
Nb       1.55652623       5.10667933       5.12021444       0.37738651       0.00456761      -0.18404213
Ti       3.41975698       0.13416696      -0.24721878      -0.26438811      -0.07130550       0.33119130
Zr       5.07012167       1.65921816       1.81525231      -0.89105737      -0.23202269      -0.68939477
Ti       3.31864028       0.10052975       3.34917635      -0.16104807      -0.12586491       0.16782649
Ti       5.13521683       1.59402137       5.00544043      -0.28515670       0.16371244       0.10080490
Ti       3.32834966       3.39781101      -0.07277990      -0.16146751      -0.38984042      -0.39161593
Zr       5.08382773       4.80861374       1.66023000      -0.66805488       0.61706448       0.05084458
Ti       3.34400961       3.44253487       3.33307886      -0.18489815      -0.29312247       0.58710551
Nb       4.99284457       5.12903170       4.99112223      -0.14906825      -0.27394700      -0.08742125
16
Lattice="6.69 0.0 0.0 0.0 6.69 0.0 0.0 0.0 6.69" Properties=species:S:1:pos:R:3:forces:R:3 group=Ti2ZrNb_rattle10_b1 composition=Ti2ZrNb energy=-135.7552490234375 pbc="T T T"
Ti      -0.09855181      -0.12685371       0.06670785       0.60362220       0.06752530       0.16250496
Ti       1.62693424       1.72080476       1.80553338       0.18732455      -0.01724478      -0.08603688
Nb      -0.14865526       0.08782869       3.26839763       1.42695963      -0.25658491       0.49490345
Zr       1.65559279       1.57907104       5.08413826      -0.54630971       0.27070016      -0.14571695
Ti       0.09529428       3.34772939       0.14010766      -0.04230361       0.38872671      -0.13509066
Nb       1.91365734       4.89575711       1.89350438      -0.56930166      -0.11300371      -0.47345260
Ti      -0.03503739       3.43034019       3.42375081       0.36584741      -0.04563393      -0.05843204
Ti       1.53774215       5.13560702       5.04418388       0.19111794      -0.39464551       0.06938128
Zr       3.41858014       0.13005166       0.08358285      -0.56949025      -0.82265854       0.18874680
Zr       5.06753991       1.59799054       1.72451178      -0.33495098       1.07506180      -0.48026031
Ti       3.33471618      -0.21965646       3.40871884      -0.33966342       0.27571613      -0.09252382
Zr       4.84716221       1.67427017       4.89782302       1.06584394       0.06360960       0.67079723
Ti       3.40546986       3.39308128      -0.19778355      -0.14970341       0.54992032       0.60744798
Nb       5.17642292       5.12484133       1.90424919      -0.44083548      -1.14863157      -0.88796848
Ti       3.43399124       3.23831026       3.47029629      -0.54512370       0.90706551      -0.42567012
Nb       5.16941770       5.18765683       4.94881793      -0.30303314      -0.79992306       0.59137011
16
Lattice="6.69 0.0 0.0 0.0 6.69 0.0 0.0 0.0 6.69" Properties=species:S:1:pos:R:3:forces:R:3 group=Ti2ZrNb_rattle10_b1 composition=Ti2ZrNb energy=-135.8111572265625 pbc="T T T"
Zr      -0.07135750      -0.19826231       0.10003202       0.32514822       1.15818739      -0.71360314
Nb       1.60340627       1.64072085       1.55536591       0.32331753       0.17593743       0.43532303
Ti      -0.08378531      -0.10163618       3.34429873       0.10234281       0.59204668       0.01762167
Ti       1.66915905       1.56761030       4.95568788       0.11309236       0.26700315       0.11666615
Nb      -0.04222420       3.26602469      -0.10854031      -0.04811345      -0.37079453      -0.03840767
Zr       1.70125894       4.92189377       1.69264794      -0.30115438       0.22104833       0.54334033
Ti      -0.04298284       3.31049818       3.44128590      -0.01801830      -0.25191712      -0.15920275
Zr       1.54552504       5.02411390       4.96272469       0.58701408      -0.17557043       0.01881056
Nb       3.41333399      -0.01401336       0.01675243      -0.36855629       0.75377411      -0.26654187
Ti       5.11270819       1.80620168       1.70507103      -0.30331719      -0.16612448      -0.00723367
Ti       3.37807496       0.09457251       3.34828450      -0.09464553       0.22474873      -0.12220100
Nb       5.00097667       1.65708882       4.93074484      -0.18371889       0.18488733       0.23713470
Ti       3.39590076       3.59275347       0.29300275      -0.10362583      -1.38676512      -1.29885399
Zr       5.00151015       5.10670239       1.59549886       0.11969197      -0.38301980       1.20876241
Ti       3.39382435       3.43870889       3.40701730      -0.07816547      -0.54753476       0.04712209
Ti       4.92641024       5.08792801       4.97804860      -0.07129132      -0.29590687      -0.01873681
54
Lattice="10.035 0.0 0.0 0.0 10.035 0.0 0.0 0.0 10.035" Properties=species:S:1:pos:R:3:forces:R:3 group=Ti2ZrNb_rattle10_b9 composition=Ti2ZrNb energy=-458.31707763671875 pbc="T T T"
Nb       0.13132578      -0.02616723       0.03338747      -0.34871849       0.40869507      -0.45104176
Nb       1.93291678       1.78418306       1.65781402      -0.85971719      -0.43172309       0.37888479
Ti       0.18375127       0.11692050       3.39134184      -0.22920351      -0.18228948      -0.04473324
Ti       1.57402355       1.61661448       5.06006510       0.24747792      -0.02487546      -0.28300279
Ti      -0.12599765       0.16172907       6.59943083       0.08725905      -0.45083058       0.23854579
Ti       1.64190217       1.74448660       8.21128055      -0.45234308      -0.61817318       0.64721519
Ti       0.01419725       3.31742680       0.18997458      -0.11974873      -0.35187346      -0.45574740
Ti       1.62153794       4.95770884       1.57834874       0.10862451      -0.22139823       0.63960040
Ti       0.02323648       3.24022568       3.44599572       0.12025953       0.34852928      -0.11715285
Ti       1.78280724       4.97471040       5.16582502      -0.01916577      -0.02023414      -0.37222099
Nb       0.08884241       3.18068861       6.70243984      -0.69980907       0.42461705      -0.01763437
Zr       1.68735140       5.12881899       8.43692168      -0.00413911      -0.42003977      -0.64838600
Zr      -0.01525918       6.52818179      -0.09649472      -0.14158410       0.65732425       0.11504181
Ti       1.61458877       8.55041747       1.56850223       0.07956785      -0.21611141       0.30106619
Zr       0.12156444       6.65059045       3.31106728       0.05378532      -0.22222616      -0.06079616
Ti       1.61578750       8.18946106       5.17758138       0.44350874       0.61376506      -0.30920321
Zr      -0.08219078       6.65645491       6.51319979      -0.37534738      -0.14430857       0.37602347
Ti       1.69303447       8.24649445       8.22777380      -0.19920772       0.57201850      -0.15299171
Nb       3.20039134       0.03698784      -0.17251629       0.16073233      -0.14209764       0.28312775
Zr       5.08576408       1.58550249       1.89474741      -0.34601578      -0.12404165      -0.26789573
Ti       3.13655668      -0.18174365       3.32532168       0.24653475       0.01201641       0.23441064
Zr       4.92777703       1.81390672       5.14345864       0.22045100      -0.72567236      -0.87871683
Nb       3.30221831       0.03247357       6.70023249      -0.58863115      -0.26360825      -0.23085634
Nb       5.00079963       1.67410694       8.51061713       0.00278608      -0.74145389      -0.33484343
Zr       3.36170089       3.29631268      -0.05041225      -0.12122148       0.41683507       0.26772425
Ti       5.17013048       5.03652392       1.70111683      -0.34586850      -0.21050133       0.03378303
Ti       3.29964139       3.39143362       3.32073309      -0.07105464       0.31538942       0.09958808
Ti       4.97461846       5.02748061       4.98505000       0.03490915       0.02912722      -0.21308951
Zr       3.41148954       3.15800354       6.74670337      -0.46540457       0.95046759      -0.10409938
Ti       5.04612272       5.08315410       8.24364384       0.07320355       0.28269890       0.23081440
Zr       3.24142612       6.77416259       0.10470278       0.32381982      -0.24491069      -0.37380975
Nb       4.92033915       8.17435192       1.56857187       0.21636978       0.79885972       0.21393502
Nb       3.43002547       6.65147103       3.23553152      -0.37954298      -0.03453831       0.45657063
Nb       4.97923604       8.40733714       5.03739279      -0.11282933      -0.36267239      -0.51993239
Ti       3.55600781       6.71504814       6.60314648      -0.42470342      -0.11098216      -0.18332675
Zr       5.04031263       8.47467049       8.13890739       0.15718555      -0.64272988       0.79517293
Nb       6.76283317      -0.06146342      -0.00378623      -0.02667111       0.20876715      -0.06714185
Ti       8.56087289       1.70949224       1.80745739      -0.21478923      -0.09313717      -0.17754439
Zr       6.67486074      -0.16325852       3.22031859       0.23740232       0.25201342       0.59007245
Ti       8.37281999       1.79717042       5.02592655      -0.08281219      -0.06659236      -0.06138416
Zr       6.66606687       0.01924862       6.67243284       0.81999856       0.15485005      -0.18387683
Ti       8.31974713       1.67821539       8.50912964       0.40439063      -0.09732775      -0.19706443
Zr       6.52396931       3.27109530      -0.08827498       0.91380847       0.40272334       0.62686968
Nb       8.33659183       4.98569984       1.51988328      -0.06357726      -0.38228154       0.64728993
Nb       6.70823640       3.39030661       3.48468069       0.28566867       0.16062577      -0.26975942
Ti       8.29593012       4.94554116       4.96746635       0.05408600      -0.22622791      -0.10825823
Nb       6.54243023       3.35365181       6.84063614       0.92956728       0.21766925      -0.36538181
Ti       8.32669835       4.98215838       8.37641030      -0.04897148      -0.27715212      -0.30668199
Ti       6.80249066       6.65924496       0.06943001      -0.57781684      -0.16353413      -0.62989342
Zr       8.27929602       8.26086615       1.55421748       0.61512935       0.37157956       0.34246334
Ti       6.50792642       6.66105420       3.16068006       0.36879358      -0.10665765       0.65604234
Ti       8.40039003       8.25995399       4.80437054      -0.17968790       0.21256728       0.24773115
Ti       6.68015886       6.44125217       6.46517170       0.17492893       0.45759919       0.13026543
Ti       8.33734652       8.36921649       8.36743465       0.11833335       0.05146383      -0.16577142
54
Lattice="10.035 0.0 0.0 0.0 10.035 0.0 0.0 0.0 10.035" Properties=species:S:1:pos:R:3:forces:R:3 group=Ti2ZrNb_rattle10_b9 composition=Ti2ZrNb energy=-457.6527404785156 pbc="T T T"
Ti       0.10629367       0.12130554      -0.05005004      -0.49758521      -0.12117568      -0.03201026
Ti       1.70022624       1.53027476       1.53982675      -0.31277668       0.61004758       0.52911252
Ti      -0.10836187      -0.10787810       3.29225685       0.84922647       0.72222829      -0.02186183
Zr       1.68951936       1.75138926       5.17310580      -0.26397219      -0.76591778      -0.85125351
Ti      -0.17126271      -0.04742711       6.56006243       0.46925628      -0.18900880       0.79718679
Ti       1.72451277       1.77302916       8.49210122      -0.15585329      -0.45133460      -0.44715109
Nb       0.11098779       3.41888145      -0.08711231      -0.29128036      -0.24380463       0.21939224
Ti       1.55113818       5.13792290       1.63127443       0.29840568      -0.45751032       0.14303863
Ti      -0.06051183       3.52370119       3.43803526       0.20823950      -0.28339905      -0.75308973
Zr       1.80702079       5.00507454       5.07852642      -0.14059512      -0.08135810      -0.99907631
Ti      -0.04143419       3.32998646       6.63162393      -0.13404277      -0.11704221       0.53613156
Zr       1.63762263       5.11573326       8.11932116       0.16638045      -0.84078658       1.00387084
Zr      -0.02251770       6.75378229      -0.09647423      -0.26843953      -0.25167301       0.43191609
Zr       1.77291313       8.37142680       1.64159608      -0.26925993      -0.10892446       0.16131991
Nb      -0.00309666       6.60074268       3.36425357       0.15115133      -0.02508911      -0.29325598
Ti       1.56881482       8.40020871       5.04949864       0.08408329       0.09440628      -0.43432492
Zr      -0.10399303       6.61809701       6.63109277       0.01182616       0.94738621       0.09321399
Ti       1.67235828       8.32337348       8.49591659       0.17775247       0.69596308      -0.40011942
Ti       3.30641784       0.06764144       0.15637273       0.20514145      -0.37855199      -0.76889586
Zr       5.00440405       1.72229054       1.59300852      -0.54805028       0.06132206       0.87248707
Ti       3.29849218      -0.14709764       3.27377514       0.20459783       0.43420222       0.48414940
Nb       5.05642281       1.64001721       5.05657707       0.04751018      -0.14045568      -0.25918573
Nb       3.30608955      -0.07911228       6.49578836       0.19917426      -0.05068195       0.63295692
Nb       4.88099399       1.56088427       8.38886139      -0.07413569       0.29826117      -0.61141598
Ti       3.24719585       3.32468095      -0.08107637       0.14751343       0.33846432       0.20203443
Ti       4.98691680       5.01619934       1.65257762      -0.27439892       0.00549586      -0.01274912
Ti       3.29354108       3.35862760       3.41093717       0.24419302      -0.06593227      -0.37975797
Nb       5.05075245       4.95750776       5.13815979      -0.10379270       0.26017860      -0.45492506
Ti       3.24966747       3.18286577       6.60631437       1.06030655       0.24129468       0.67758954
Nb       4.92098018       5.10668639       8.38562973       0.21380219      -0.45322973      -0.20459744
Nb       3.36246919       6.59378780       0.00428500       0.22050543       0.17675957       0.04625204
Ti       4.98068032       8.34434670       1.71849526       0.16810492       0.20408541      -0.04812539
Ti       3.44802620       6.64767637       3.17448287      -0.03825921      -0.03271850       0.42807215
Ti       5.03027953       8.40225585       4.93971202       0.00652999       0.07058939      -0.06150665
Zr       3.21112039       6.71945529       6.64724649       1.07813990       0.77178681      -0.10317963
Ti       5.06948335       8.30431950       8.34147562      -0.55523497       0.38782406      -0.12856913
Zr       6.66257197       0.23915196       0.01634091       0.25761223      -1.05561137      -0.12691607
Nb       8.34192342       1.67023367       1.69006756       0.97849202       0.18432838       0.20922436
Ti       6.94281812       0.11121849       3.26089884      -1.13636470       0.19935471      -0.14604971
Zr       8.45654392       1.72282591       5.02661030      -0.60723567       0.17589813      -0.16707408
Ti       6.73799680      -0.12506122       6.77836293      -0.42344147       0.52591407      -0.01269029
Nb       8.42707867       1.66882168       8.30080663       0.07615673       0.09894420      -0.06003223
Zr       6.80899129       3.36761477       0.16979035      -0.41168880       0.30855393      -1.28894663
Ti       8.31533993       4.95579250       1.54983837       0.59028959       0.57103968       0.63270772
Ti       6.64845840       3.49933815       3.21536125      -0.06145936      -0.22106235       0.50738400
Zr       8.29734162       5.07808585       5.07183048      -0.42232770      -0.25283387      -0.61352670
Nb       6.51849049       3.43505189       6.65226651       0.05191959      -0.51504147       0.55249113
Ti       8.28710550       5.02103007       8.14189522      -0.18362011      -0.35835934       0.57842511
Zr       6.72328616       6.85766858      -0.10874584      -0.33094448      -0.64628893       0.74936903
Nb       8.52171285       8.36066714       1.95277759      -0.44573832      -0.11662202      -1.20856047
Ti       6.54579030       6.73486138       3.25143655       0.01677245      -0.32473344      -0.05530364
Zr       8.22083635       8.48205863       4.80308315       0.08801924      -0.47151887       0.67611045
Ti       6.85242336       6.88995498       6.62888359      -0.97762173      -0.32439268       0.18537477
Nb       8.26168931       8.31678824       8.44833455       0.65701729       0.96073008      -0.40565982
54
Lattice="10.035 0.0 0.0 0.0 10.035 0.0 0.0 0.0 10.035" Properties=species:S:1:pos:R:3:forces:R:3 group=Ti2ZrNb_rattle10_b9 composition=Ti2ZrNb energy=-457.0312805175781 pbc="T T T"
Zr      -0.11345763      -0.06721247       0.09802766       0.49133351       0.11925496       0.02456966
Ti       1.69982020       1.57490087       1.85870034       0.03852894       0.22083661      -1.09219229
Zr      -0.05061695       0.13145315       3.46465755       0.96824181      -1.04161453       0.04291865
Ti       1.73293816       1.73777314       5.10569868      -0.21293914      -0.02385581       0.09302579
Zr      -0.28612279       0.04888594       6.81690635       0.99868482      -0.59548640      -0.75005990
Nb       1.72748818       1.51033403       8.52916560      -0.32067388       0.77251697      -0.05388024
Ti      -0.04738249       3.14116903       0.13408429       0.25711751       0.25668910      -0.26417831
Ti       1.60407834       4.91701734       1.48259348       0.34750414       0.43525201       0.13936490
Zr       0.12478913       3.19514943       3.22962350      -0.26780778       1.06491864       0.41923994
Ti       1.55006905       5.03673947       4.78005048       0.02662075       0.33900139       0.49749553
Nb      -0.07991492       3.38071045       6.66688369       0.72229940       0.03339019      -0.22150427
Nb       1.74100947       5.04136674       8.41318272      -0.38071257      -0.21841826      -0.14741547
Ti      -0.01186407       6.54424557      -0.08860432       0.10868266       0.40809247       0.41841778
Ti       1.61183905       8.34022849       1.65602420       0.34830451      -0.39468503       0.04015875
Ti      -0.15104045       6.78655197       3.14843425       0.34816334      -0.46793056       0.47102976
Nb       1.56123928       8.32771560       4.94557961       0.06055276      -0.30427837       0.20659073
Nb      -0.04818482       6.77280924       6.68240281       0.07198131      -0.22434524      -0.19420700
Ti       1.58644834       8.32455637       8.39202249       0.01132587       0.00523315      -0.09001800
Nb       3.28787474       0.01217554       0.00130643      -0.20320627      -0.44296756      -0.10839954
Zr       4.78546823       1.65331519       1.73765161       1.17456603       0.80055302      -0.69780171
Zr       3.41587989       0.15125172       3.32773884      -1.00522101      -1.24434793       0.53120780
Ti       4.99489626       1.50003924       4.89121458       0.60863167       1.08137226       0.53169888
Zr       3.37987028       0.13628637       6.76575361      -0.50043195      -0.48329085      -0.23312607
Ti       5.00374692       1.60783049       8.36530355       0.22594582       0.50170225       0.04842454
Ti       3.31446096       3.32152937      -0.08407258       0.00670823       0.14100210       0.11117434
Ti       4.84429486       5.18618774       1.86446345       0.22410889      -0.25172314      -0.67694932
Ti       3.35164549       3.31289633       3.22048606      -0.35790670       0.61815816       0.45233735
Zr       4.88568562       5.09881786       4.93038829       0.54824728      -0.58004123       0.43922645
Zr       3.27353053       3.36274106       6.72800600       0.22464478       0.33609438       0.05662999
Ti       4.99910147       5.20347642       8.55863071       0.29617625      -0.56587112      -0.38223475
Ti       3.32463718       6.68917913      -0.34476608      -0.03899965       0.27588856       0.94840801
Zr       5.14319341       8.42154857       1.74929876      -0.66509074      -0.84484637      -0.52122033
Nb       3.35904323       6.70436743       3.48822643      -0.81440389       0.19033171      -0.62517732
Zr       5.12712515       8.32166633       5.07263755      -0.41631305      -0.28343689       0.07434633
Ti       3.26931482       6.88642552       6.77737771      -0.23115948      -0.44274944      -0.24700588
Nb       5.01885045       8.43691503       8.26884364       0.02499358      -0.36314595       0.18727680
Zr       6.63215212      -0.01360579      -0.06596982       0.35118288       0.29078591      -0.15710011
Nb       8.46232282       1.62727752       1.82483593      -0.74222028       0.49835688      -0.80977499
Zr       6.96859245      -0.17327150       3.38789515      -1.07846403       0.92786521      -0.33630291
Ti       8.37487402       1.57524858       4.91425227      -0.52657759       1.08373535       0.85378063
Ti       6.58932915      -0.00390425       6.58078682       0.45238617       0.38430619       0.57409787
Nb       8.52584553       1.77153533       8.24678798      -0.92459184       0.18917307       0.81027347
Ti       6.74830293       3.04582252       0.01075561      -0.08114180       0.59266967       0.04309729
Ti       8.22844463       5.00894440       1.64366447      -0.02396311      -0.08683480      -0.08860795
Ti       6.72698811       3.26774667       3.32803650      -0.08762465       0.22083099       0.08902611
Nb       8.46862441       4.84284026       5.01421157      -0.41538036       0.58007377      -0.12694924
Nb       6.82182628       3.31280037       6.82969651      -0.66471118      -0.07409082      -0.46084410
Zr       8.44449548       4.93465712       8.47982585      -0.34529579       0.23066235      -0.11636976
Nb       6.65270421       6.81847776      -0.13010429       0.14819093      -0.39331442       0.32890847
Ti       8.41570633       8.38362311       1.75525960       0.00480130      -0.69861567      -0.62001944
Ti       6.71238923       6.69533980       3.26801471       0.32487249      -0.52908158       0.08048742
Ti       8.20981563       8.37705949       4.98690678       0.80125666      -1.08205354       0.68937379
Ti       6.63923464       6.65181620       6.68183012       0.51055831      -0.22760248       0.32016754
Ti       8.39867287       8.41697765       8.51699130      -0.42177629      -0.73411953      -0.50141549
16
Lattice="6.69 0.0 0.0 0.0 6.69 0.0 0.0 0.0 6.69" Properties=species:S:1:pos:R:3:forces:R:3 group=Ti2ZrNb_rattle18_b2 composition=Ti2ZrNb energy=-133.44198608398438 pbc="T T T"
Nb       0.00602194      -0.04275420       0.18634704       0.67094213      -0.04811708      -0.74216086
Ti       1.43368107       1.71868806       1.66154248       0.70231420      -0.58384240       0.35839075
Ti       0.06237810      -0.09791714       3.40109699       0.36861327      -0.19072172       0.19908549
Ti       1.73817033       1.90705130       5.08258214      -0.35489881      -0.59766644      -0.30964828
Nb       0.17038873       3.62930468       0.13336159      -0.62310094      -0.79288566      -0.58090341
Ti       1.76661120       5.05710588       1.50373662      -0.44381845       1.00586343       1.52667427
Nb      -0.18211280       3.40795950       2.97072815       1.19435775       0.40639335       1.23070073
Ti       1.82700915       4.90914219       4.84142403      -0.28521234       0.45053363      -0.03907916
Zr       3.75614883      -0.21040973       0.10017753      -2.10980582       1.08223319      -2.01998901
Zr       4.85719700       1.58285375       1.75940382       1.71265411       2.03640509      -1.56187654
Ti       3.97658627       0.06169799       3.16268682      -2.74923277      -1.90302718       2.65392661
Zr       4.99762684       1.80063224       4.98582504       0.82169175      -0.33618331       0.53404802
Zr       3.30395273       3.41705161       0.31093131      -0.39625704      -1.23161268      -1.37247467
Ti       4.82835019       4.93964420       1.70666957       1.85353863      -0.60222822       0.95107162
Ti       3.38148744       3.33408199       3.34286749      -0.84186196       0.14536779       0.08089449
Nb       5.04041780       4.59799870       5.12406901       0.48007593       1.15948820      -0.90865993
16
Lattice="6.69 0.0 0.0 0.0 6.69 0.0 0.0 0.0 6.69" Properties=species:S:1:pos:R:3:forces:R:3 group=Ti2ZrNb_rattle18_b2 composition=Ti2ZrNb energy=-133.52651977539062 pbc="T T T"
Ti      -0.09412012      -0.03762769       0.23075933       0.41692337       0.97205532      -0.68070436
Nb       1.61800081       1.58571611       1.47782056       0.17561963       0.18370810       0.33667010
Zr       0.16705957      -0.18764662       3.53571646      -1.58068514       1.91286445      -2.20338535
Nb       1.45652373       1.61651389       5.00608403       0.99604279       0.52055764       0.35329142
Zr      -0.11906716       3.52605906      -0.11002456       1.45094573      -1.82531822      -0.44012001
Nb       1.70963337       4.98343877       1.67847287      -0.12137675       0.20849708       0.22048216
Ti       0.05672129       3.30424555       3.20588826      -0.02661015      -0.47336251       0.03567696
Nb       1.52349984       5.06821208       4.89404076       2.03644872      -0.96978593       1.17085814
Ti       3.52388137      -0.54029037       0.10964925      -1.47356248       2.85453200      -0.49018723
Ti       4.75125156       1.92595146       1.59799066       1.27361631      -1.25441742       0.29113242
Ti       3.46848440       0.39933612       3.16954176      -0.67628193      -1.31595039       0.01530337
Ti       4.62301926       1.70570181       4.91044432       0.81662118      -0.08343074       0.55769360
Zr       3.41963483       3.48622852       0.13454744      -2.03549433      -1.33869839      -1.61119592
Ti       5.14230439       4.93519717       1.35464112       0.33953929       0.92610997       3.24301887
Ti       3.56388395       3.70060058       3.29561693      -1.13727427      -0.69135994      -0.13330102
Zr       5.05648796       5.04860046       4.93701444      -0.45447221       0.37399861      -0.66523230
16
Lattice="6.69 0.0 0.0 0.0 6.69 0.0 0.0 0.0 6.69" Properties=species:S:1:pos:R:3:forces:R:3 group=Ti2ZrNb_rattle18_b2 composition=Ti2ZrNb energy=-134.40272521972656 pbc="T T T"
Zr       0.00963036       0.00074574      -0.07460991      -1.98846149       1.04377270       0.08742076
Zr       1.74050460       1.69279412       1.63119335       0.08746269       0.62574005       0.01849362
Ti       0.10713320       0.01123634       3.26121111      -0.92249912       0.02670975       0.09552146
Zr       1.64699252       1.41073322       5.03537061       0.45304567       1.58875060      -0.09747478
Ti       0.04467129       3.11786707       0.20032944      -0.16551769       1.11609817      -1.08444750
Ti       1.27292472       5.27631975       1.37921060       1.92743349      -1.41475332       1.35979223
Zr       0.06347809       3.38643425       3.25533735      -0.05446333       0.10532469       0.45016289
Ti       1.52166313       5.15528291       5.12684613       1.21706581      -0.93564522      -0.52048612
Nb       3.36878385       0.11592086       0.06467889       0.79436749      -0.61160392      -0.32952845
Ti       5.10603992       1.82976590       1.51653010      -0.54463232      -0.43318611       0.65330398
Nb       3.41624151       0.48333949       3.19897962       0.77318567      -1.84735978       0.46996033
Ti       4.87946969       1.84737711       4.97977319       0.29410914      -0.00343651       0.26996994
Nb       3.51969306       3.61411558       0.27654135      -0.75188309      -0.29405451      -1.15666234
Ti       4.86806246       4.98431663       1.84212624       0.44524661       0.88807082       0.01637352
Nb       3.39091648       3.54518985       3.46274155      -0.29479247       0.42068121       0.21466641
Ti       5.38730070       4.99255980       5.14989832      -1.26966703      -0.27510932      -0.44706568
16
Lattice="6.69 0.0 0.0 0.0 6.69 0.0 0.0 -0.14215078077712628 6.69" Properties=species:S:1:pos:R:3:forces:R:3 group=Ti2ZrNb_strain_shear_b0 composition=Ti2ZrNb energy=-136.5565185546875 pbc="T T T"
Ti       0.00112121      -0.00758616       0.00624964      -0.19552027       0.13844781      -0.26579070
Ti       1.65362992       1.61493044       1.57626882      -0.04498645       0.20513050       0.12619343
Ti      -0.01488387      -0.13309796       3.36436227      -0.04350230       0.28652826       0.06684061
Ti       1.66708381       1.57020062       4.98395291      -0.08198782       0.11818879       0.15662897
Ti       0.01330430       3.36064404      -0.00923735      -0.14734152      -0.14679345      -0.14837930
Zr       1.65385381       5.01257789       1.60052104      -0.21585771      -0.20192361       0.01523507
Nb      -0.04082720       3.26015054       3.32637763       0.05712833      -0.10429822       0.13747397
Zr       1.68417904       4.91496419       4.96403943      -0.24278432      -0.12336381       0.23193076
Nb       3.32266939      -0.01318657       0.02284344       0.30072552       0.25400797      -0.31938714
Zr       5.03842458       1.63241046       1.72380523       0.10917246       0.09270939      -0.26453590
Zr       3.32301213      -0.09216256       3.31580929       0.18811789       0.29166722       0.21093041
Ti       5.04097163       1.61984709       4.99853609      -0.00682224      -0.01177931       0.18573840
Nb       3.34110055       3.35702999       0.02024190       0.21814696      -0.20122384      -0.21931440
Ti       5.05382589       4.99483324       1.67362767      -0.02654319      -0.16155195      -0.14452597
Nb       3.33506524       3.32213539       3.35811581       0.10247587      -0.32746342      -0.00593446
Ti       5.02682041       4.90047954       4.98334963       0.02957915      -0.10828253       0.23689644
16
Lattice="6.69 0.0 0.0 0.0 6.69 0.0 -0.0950031168485858 0.0 6.69" Properties=species:S:1:pos:R:3:forces:R:3 group=Ti2ZrNb_strain_shear_b0 composition=Ti2ZrNb energy=-136.45425415039062 pbc="T T T"
Zr       0.00884026       0.02328516       0.00238095      -0.22800362      -0.02041950       0.11747824
Ti       1.64534096       1.64162660       1.67994171       0.12470506       0.21462692       0.42347911
Ti      -0.04638691       0.00075596       3.33024329      -0.07644798       0.09474828      -0.09620784
Nb       1.59271627       1.67315925       5.03321034       0.13949139       0.19536468      -0.46835309
Zr      -0.04336456       3.33127886       0.05541445      -0.07832943      -0.03284582      -0.04313368
Nb       1.63516057       5.00451457       1.67266299       0.13748598      -0.13445617       0.41924155
Ti      -0.04205520       3.37948103       3.37694622      -0.07378362      -0.19180970      -0.12707783
Zr       1.63055477       5.01515145       5.02990149       0.04351783      -0.16550027      -0.36159453
Zr       3.30975378       0.01852729       0.02775061       0.36343256       0.08024888       0.08519119
Nb       5.03056162       1.70288368       1.62822299      -0.25084513       0.09945664       0.53890681
Nb       3.32090629      -0.00790139       3.35061576       0.15106405       0.17330411      -0.14744563
Ti       4.99902521       1.65704849       4.98782726      -0.26915869       0.15680675      -0.27911499
Ti       3.30538546       3.33256761       0.01760907       0.21321827      -0.10920169       0.06604075
Ti       5.00841484       4.98092874       1.69746208      -0.20422176       0.01490517       0.25313863
Ti       3.27956884       3.37119804       3.34704043       0.16497339      -0.22295649      -0.11494285
Ti       4.97032778       5.05609011       5.03516251      -0.15709847      -0.15227187      -0.26560572
16
Lattice="6.69 0.0 0.0 0.0 6.69 0.0 0.09573284446332672 0.0 6.69" Properties=species:S:1:pos:R:3:forces:R:3 group=Ti2ZrNb_strain_shear_b0 composition=Ti2ZrNb energy=-136.48826599121094 pbc="T T T"
Zr       0.00409687      -0.02558816      -0.02199061      -0.11207828       0.32854265      -0.05955856
Ti       1.66553530       1.67305522       1.68205873       0.27148429       0.11544362       0.02548702
Zr       0.01772051      -0.03740505       3.38028985      -0.04074201       0.26202872       0.05216071
Ti       1.66500052       1.68140063       4.98805774       0.45388758       0.24081208       0.01854051
Nb       0.06904795       3.30051765      -0.00967280      -0.11553743      -0.17869118      -0.25090355
Zr       1.68370106       5.03663471       1.65008831       0.36747071      -0.19910118       0.14464460
Nb       0.06243970       3.29625068       3.30920981      -0.02388817      -0.14032076       0.31150445
Nb       1.80039261       5.08541339       5.03956090       0.29614511      -0.47394031      -0.12044479
Ti       3.34781353      -0.02413073      -0.00899156       0.02367167       0.33993673      -0.18206689
Ti       5.04598350       1.70116725       1.68583468      -0.22303656       0.05407662      -0.03887797
Ti       3.37771201      -0.01751769       3.39332359       0.05572206       0.26539737       0.11007158
Nb       5.07144195       1.66497752       5.03580530      -0.33264756       0.29526979      -0.00060422
Ti       3.33070018       3.33592027       0.03829588      -0.00506729      -0.27114651      -0.31527635
Zr       5.02277385       4.99545034       1.65658518      -0.25974926      -0.15811610       0.01663733
Ti       3.41440922       3.34855434       3.32651857      -0.10510685      -0.21230349       0.29506919
Ti       5.11007012       4.96815811       5.03430664      -0.25052771      -0.26788774      -0.00638309
16
Lattice="6.542081672550571 0.0 0.0 0.0 6.542081672550571 0.0 0.0 0.0 6.542081672550571" Properties=species:S:1:pos:R:3:forces:R:3 group=Ti2ZrNb_strain_vol_b0 composition=Ti2ZrNb energy=-135.9129638671875 pbc="T T T"
Nb      -0.01624746      -0.02980220      -0.06003595      -0.00843474      -0.19495386       0.12358687
Zr       1.63613887       1.62838781       1.64386871      -0.13481523      -0.18503554       0.37596101
Ti      -0.02166762       0.01533402       3.27065541       0.10140310      -0.23353244       0.15716757
Zr       1.63281737       1.62927811       4.98716804      -0.11485708      -0.07374275      -0.54622799
Ti      -0.00040019       3.23820930       0.04253994      -0.24146429       0.18040216      -0.13771476
Ti       1.59732120       4.85973947       1.62443030      -0.08925450       0.30389100       0.20670807
Ti       0.04081925       3.26499235       3.28506534      -0.20798734       0.14944133       0.14829004
Ti       1.66512190       4.89462488       4.97968763      -0.21281984       0.19896828      -0.35504237
Nb       3.29642455      -0.01761354       0.01250123      -0.08138305      -0.11785553      -0.09847890
Ti       4.91500421       1.59490471       1.68008158       0.09303334       0.05047876      -0.00503312
Nb       3.32457273      -0.00600527       3.29019862      -0.20582786      -0.18475115       0.15316623
Nb       4.90058154       1.59736818       4.91511287       0.24393883       0.17905900      -0.21470433
Zr       3.24866888       3.27687538       0.00043491       0.30053383       0.03615779      -0.01149626
Zr       4.85727802       4.94714982       1.62414914       0.43462512      -0.14972320       0.25268984
Ti       3.31711032       3.30086636       3.27233647      -0.03797475       0.01311695       0.18964687
Ti       4.91793831       4.90616010       4.94137526       0.16128457       0.02807950      -0.23851883
16
Lattice="6.620390702484445 0.0 0.0 0.0 6.620390702484445 0.0 0.0 0.0 6.620390702484445" Properties=species:S:1:pos:R:3:forces:R:3 group=Ti2ZrNb_strain_vol_b0 composition=Ti2ZrNb energy=-136.2080078125 pbc="T T T"
Ti      -0.01411375       0.00353238       0.01699874       0.23582982       0.09188147      -0.33008155
Ti       1.62887488       1.66328527       1.66918780       0.32601970      -0.32420021      -0.10073144
Ti      -0.01525755       0.03713211       3.30296833       0.33545309      -0.10035590       0.34359488
Ti       1.65188757       1.69922726       4.98026021       0.24478342      -0.28244486      -0.00657778
Zr      -0.03284925       3.37473520      -0.02610788       0.32061684      -0.35625008      -0.27126592
Nb       1.65595503       4.94830649       1.59551675       0.31571084       0.45631862       0.14178486
Zr       0.01020063       3.35424393       3.28216185       0.35041487      -0.12094957       0.43261030
Ti       1.65044795       4.95485140       5.00529261       0.30989355       0.24992250      -0.14812872
Nb       3.33591717      -0.06257526      -0.06285018      -0.29524294       0.18384263      -0.10912630
Zr       4.98161269       1.62205337       1.67353863      -0.26867050      -0.32270351      -0.15392488
Nb       3.30375349      -0.00509141       3.36357809      -0.32817402      -0.03492002       0.16782114
Ti       4.92334954       1.69994611       4.92612991      -0.13722147      -0.28172576       0.11322856
Ti       3.33078680       3.29259725       0.06702276      -0.29469681      -0.03482069      -0.38612139
Zr       4.98660464       4.93622608       1.68931874      -0.31439346       0.48941869      -0.03597833
Nb       3.32825062       3.29514223       3.26173357      -0.42928267       0.02437021       0.48598129
Ti       4.99895062       4.91926199       4.98878839      -0.37104025       0.36261660      -0.14308451
16
Lattice="6.673169908574266 0.0 0.0 0.0 6.673169908574266 0.0 0.0 0.0 6.673169908574266" Properties=species:S:1:pos:R:3:forces:R:3 group=Ti2ZrNb_strain_vol_b0 composition=Ti2ZrNb energy=-136.43527221679688 pbc="T T T"
Ti       0.02095244      -0.00496285       0.00024437       0.21678627      -0.25042641      -0.00018762
Ti       1.65154014       1.74795751       1.68203607       0.11657719      -0.19953789      -0.30060631
Ti       0.01816865      -0.02587776       3.32125355       0.16611971      -0.18886541       0.00651498
Ti       1.69298656       1.62837218       4.94131491       0.00926125       0.01786450       0.32868627
Ti       0.02746543       3.31678630      -0.01995524       0.13934255       0.31904384       0.03531590
Nb       1.66440764       5.00468883       1.68143759      -0.07652372       0.05310194      -0.40999132
Zr      -0.00583825       3.29866211       3.36100301       0.32243317       0.39643350       0.01685934
Ti       1.66079915       5.00952161       4.95095548       0.07444051       0.03691932       0.34269911
Ti       3.39805012       0.00064414       0.00378558      -0.35201138      -0.18557595      -0.04066333
Zr       5.03500616       1.65802569       1.70118484       0.05952930      -0.00612459      -0.52335107
Zr       3.35240419       0.02444549       3.29271266      -0.32877779      -0.23863739       0.14457886
Zr       5.03101663       1.70094162       4.99252764       0.02892864      -0.22224422       0.37655860
Nb       3.31291660       3.31405930      -0.06598739      -0.26027575       0.30471757       0.05973237
Nb       4.96081503       5.01337402       1.68998939       0.26088619      -0.04407941      -0.47727334
Nb       3.37021936       3.36165280       3.28538565      -0.40772420       0.18197049       0.16892053
Ti       5.00029699       5.00321421       4.98936919       0.03100837       0.02543999       0.27220699
16
Lattice="6.5600000000000005 0.0 0.0 0.0 6.5600000000000005 0.0 0.0 0.0 6.5600000000000005" Properties=species:S:1:pos:R:3:forces:R:3 group=TiNb_md1400_b1 composition=TiNb energy=-142.96331787109375 pbc="T T T"
Nb       0.00000000       0.00000000       0.00000000      -0.03223873       0.02939841      -0.02934194
Ti       1.64000000       1.64000000       1.64000000       0.00800334       0.00847964      -0.00785978
Ti       0.00000000       0.00000000       3.28000000       0.00626969      -0.01646604      -0.01626110
Nb       1.64000000       1.64000000       4.92000000      -0.03592009      -0.03760422      -0.03590860
Nb       0.00000000       3.28000000       0.00000000      -0.04132515      -0.03558809      -0.03538657
Nb       1.64000000       4.92000000       1.64000000      -0.03975213       0.04039094       0.03961303
Ti       0.00000000       3.28000000       3.28000000       0.01386971       0.01952782      -0.01947453
Ti       1.64000000       4.92000000       4.92000000       0.00800526      -0.00845121       0.00787810
Ti       3.28000000       0.00000000       0.00000000      -0.00735649      -0.01257208       0.01248457
Ti       4.92000000       1.64000000       1.64000000      -0.01261823       0.01417699      -0.01261264
Nb       3.28000000       0.00000000       3.28000000       0.03227720       0.02939347       0.02921972
Ti       4.92000000       1.64000000       4.92000000      -0.00942817       0.00939159       0.00956856
Nb       3.28000000       3.28000000       0.00000000       0.03864688      -0.03259267      -0.03276725
Nb       4.92000000       4.92000000       1.64000000       0.04297188       0.04238532       0.04285927
Nb       3.28000000       3.28000000       3.28000000       0.04121331      -0.03558807       0.03550447
Ti       4.92000000       4.92000000       4.92000000      -0.01261826      -0.01428187       0.01248470
16
Lattice="6.5600000000000005 0.0 0.0 0.0 6.5600000000000005 0.0 0.0 0.0 6.5600000000000005" Properties=species:S:1:pos:R:3:forces:R:3 group=TiNb_md1400_b1 composition=TiNb energy=-141.40274047851562 pbc="T T T"
Nb       0.03051773       0.03235410       0.06762399       0.44133171      -0.39665470      -0.44813657
Ti       1.50068144       1.50194660       1.60306457       0.45257711       0.64915681       0.34709743
Ti      -0.07431990       0.16319234       3.47836437       0.44877389      -0.70993227      -0.83475977
Nb       1.79575035       1.50847124       4.89700231      -0.31177747       0.19552691      -0.01082665
Nb       0.06239227       3.23214761      -0.20934612      -0.58544248       0.03387745       0.54566312
Nb       1.78819125       4.95759262       1.62789444      -0.60999566      -0.05580334       0.12263170
Ti       0.07233551       3.45203855       3.53813298      -0.62558681      -0.74183452      -1.11150992
Ti       1.62918186       4.74645754       4.74092661       0.01054168       1.23073006       0.59596479
Ti       3.35930975       0.02790540      -0.07372684      -0.78756660      -0.05265954       0.39645177
Ti       4.85294950       1.64149304       1.56841749       0.20796278       0.57589471       0.10637468
Nb       3.38653584      -0.00277329       3.27087452      -0.61485338      -0.03533260      -0.65085202
Ti       4.98888603       1.19008439       4.88794223      -0.10046205       1.84821510       0.31338069
Nb       3.14086906       3.42556608      -0.06768760       0.55760020      -1.00632143       0.56445396
Nb       5.00128812       5.17345254       1.40767768       0.05739947      -1.00418854       0.88170224
Nb       3.33463697       3.30109824       3.36714025       0.15973741      -0.78178227      -1.03851414
Ti       4.60955756       4.82563707       4.86708787       1.29976022       0.25110748       0.22087888
16
Lattice="6.5600000000000005 0.0 0.0 0.0 6.5600000000000005 0.0 0.0 0.0 6.5600000000000005" Properties=species:S:1:pos:R:3:forces:R:3 group=TiNb_md1400_b1 composition=TiNb energy=-140.9033966064453 pbc="T T T"
Nb       0.12460140       0.05935692       0.07597609       0.35524338      -0.32795104      -0.77999151
Ti       1.44157342       1.50237444       1.69964904       0.65332592       0.96322513       0.02016029
Ti      -0.06045739       0.16304202       3.43164624       0.36226809      -0.66836023      -0.83697683
Nb       1.87116059       1.38109633       4.83244211      -0.59496623       0.81431961       0.01824167
Nb       0.09062204       3.15193511      -0.34240836      -0.45571753       0.36088771       0.88658488
Nb       1.90538194       5.03405777       1.60847727      -1.15934837      -0.48559576       0.43797851
Ti       0.02675683       3.38211462       3.56533600      -0.41623941      -0.59755033      -1.27859986
Ti       1.56618127       4.87124367       4.70266557       0.34443653       0.53232354       0.37991819
Ti       3.26503474      -0.00605293      -0.11077336      -0.35557461       0.25508687       0.65978211
Ti       4.84894613       1.85290320       1.54264955       0.31919506       0.04795130      -0.09049006
Nb       3.40940317      -0.00299386       3.17926720      -0.25559390      -0.14049013      -0.35393193
Ti       4.97463188       1.09516760       4.94916933      -0.20168105       1.84343874       0.36428320
Nb       3.10496523       3.50207148      -0.09523165       0.42645010      -1.46716583       0.43782854
Nb       5.06055729       5.33413105       1.36062599      -0.12982321      -1.67773640       0.96596003
Nb       3.38820673       3.15748082       3.33955111      -0.12979522       0.16728663      -0.65511584
Ti       4.61727501       4.80622983       4.90911507       1.23782098       0.38033059      -0.17563100
16
Lattice="6.5600000000000005 0.0 0.0 0.0 6.5600000000000005 0.0 0.0 0.0 6.5600000000000005" Properties=species:S:1:pos:R:3:forces:R:3 group=TiNb_md600_b0 composition=TiNb energy=-142.96641540527344 pbc="T T T"
Ti       0.00000000       0.00000000       0.00000000       0.03972403       0.01312327      -0.01299076
Nb       1.64000000       1.64000000       1.64000000      -0.03698988       0.03012587      -0.03001555
Nb       0.00000000       0.00000000       3.28000000      -0.12443744      -0.03948106      -0.03948164
Nb       1.64000000       1.64000000       4.92000000      -0.04042338       0.03493091       0.03493292
Ti       0.00000000       3.28000000       0.00000000       0.02802878      -0.00976192      -0.00975991
Nb       1.64000000       4.92000000       1.64000000      -0.03932332      -0.03389103      -0.03389294
Ti       0.00000000       3.28000000       3.28000000       0.03972868      -0.01298578       0.01312686
Nb       1.64000000       4.92000000       4.92000000      -0.03698708      -0.03002354       0.03012003
Ti       3.28000000       0.00000000       0.00000000      -0.02641816       0.01023541      -0.01024556
Ti       4.92000000       1.64000000       1.64000000      -0.00811075      -0.01734721       0.01721409
Nb       3.28000000       0.00000000       3.28000000       0.11463483      -0.03509514      -0.03509483
Nb       4.92000000       1.64000000       4.92000000       0.03079484       0.02683751       0.02683026
Nb       3.28000000       3.28000000       0.00000000       0.10587692       0.03254218       0.03254077
Ti       4.92000000       4.92000000       1.64000000      -0.01157429       0.02381399       0.02382072
Ti       3.28000000       3.28000000       3.28000000      -0.02641521      -0.01024364       0.01023889
Ti       4.92000000       4.92000000       4.92000000      -0.00810859       0.01722018      -0.01734339
16
Lattice="6.5600000000000005 0.0 0.0 0.0 6.5600000000000005 0.0 0.0 0.0 6.5600000000000005" Properties=species:S:1:pos:R:3:forces:R:3 group=TiNb_md600_b0 composition=TiNb energy=-142.57101440429688 pbc="T T T"
Ti       0.07948247       0.03156874       0.01192192      -0.15973388      -0.06928173       0.04237724
Nb       1.59707726       1.73398761       1.62450925       0.11440816      -0.21335828      -0.25500518
Nb       0.03712257      -0.03397539       3.28576915      -0.10560551       0.07862843      -0.12332050
Nb       1.52992974       1.62339534       4.83488403       0.13728249       0.12247397       0.52325422
Ti      -0.12304691       3.27775078      -0.04594193       0.23574895       0.20591670       0.08250537
Nb       1.58609770       4.91255015       1.62879330       0.19819121      -0.11925901       0.06130500
Ti      -0.07864203       3.09141934       3.21492763       0.01603633       0.51377153       0.25305039
Nb       1.56474147       4.93350642       5.00193143       0.21926083      -0.27197450      -0.13214019
Ti       3.29973533       0.03148060       0.07225067      -0.13659394      -0.23831926      -0.00658003
Ti       4.95208593       1.61589795       1.63834112      -0.12789789      -0.08095796       0.12612097
Nb       3.31205888       0.08111497       3.33206162      -0.15686622      -0.24650081      -0.20809586
Nb       4.82528920       1.65795184       5.05609984       0.40898767      -0.25098825      -0.47688371
Nb       3.43224598       3.13436151      -0.02586453      -0.48118061       0.77658540       0.29608995
Ti       4.97147979       4.99675682       1.80957354      -0.25684884      -0.23669851      -0.30846363
Ti       3.15142782       3.16259775       3.33687383       0.25768051       0.47314045      -0.13715908
Ti       4.94731238       5.07481238       4.80739682      -0.16286948      -0.44317806       0.26294497
16
Lattice="6.5600000000000005 0.0 0.0 0.0 6.5600000000000005 0.0 0.0 0.0 6.5600000000000005" Properties=species:S:1:pos:R:3:forces:R:3 group=TiNb_md600_b0 composition=TiNb energy=-142.16873168945312 pbc="T T T"
Ti       0.15556067       0.07003047       0.00384145      -0.45366591      -0.18517467       0.23904698
Nb       1.57702310       1.78495643       1.57066794       0.09944191      -0.32098913      -0.21125245
Nb       0.05605697      -0.00902619       3.26854347      -0.00647444       0.03116845      -0.05534562
Nb       1.44918260       1.62372486       4.85717480       0.45073903       0.22646153       0.47410890
Ti      -0.20624603       3.24855854      -0.07299534       0.37650651       0.38052547       0.24658294
Nb       1.56591828       4.88298480       1.62887613       0.20322411      -0.10267720       0.17099375
Ti      -0.16178026       3.01869509       3.20803125       0.09100634       0.72285479       0.29850686
Nb       1.50337841       4.91233839       5.10008536       0.42881110      -0.36253449      -0.46582532
Ti       3.28986543       0.00700915       0.12595292      -0.16578522      -0.32230356      -0.10498668
Ti       4.91505264       1.54683056       1.65057960      -0.02097660      -0.02972433       0.16187909
Nb       3.29819600       0.15482786       3.34098096      -0.29243883      -0.48028103      -0.18133111
Nb       4.79608933       1.62402559       5.08964201       0.45833752      -0.44677985      -0.81152356
Nb       3.52348774       3.12386484       0.01419685      -0.95336246       1.14826894       0.38753209
Ti       5.01678164       5.01341096       1.90254007      -0.39011192      -0.33250731      -0.51623225
Ti       3.06324689       3.12451623       3.31773621       0.40178734       0.63240987       0.03220493
Ti       4.95321623       5.11598311       4.78339478      -0.22703815      -0.55871749       0.33564109
16
Lattice="6.5600000000000005 0.0 0.0 0.0 6.5600000000000005 0.0 0.0 0.0 6.5600000000000005" Properties=species:S:1:pos:R:3:forces:R:3 group=TiNb_rattle05_b0 composition=TiNb energy=-142.84217834472656 pbc="T T T"
Nb       0.02802032      -0.00315467      -0.01700506      -0.02715905      -0.14061160       0.16519792
Nb       1.58374993       1.64646786       1.70942185      -0.02719399       0.02232787      -0.11947563
Ti      -0.00939678      -0.04918437       3.25339617      -0.04161990       0.16231634       0.12981784
Nb       1.62424383       1.58237634       4.95035003      -0.06129345       0.12421801      -0.07475629
Ti      -0.00851332       3.25640889      -0.01917460       0.01545300       0.01161963       0.02146409
Ti       1.60452066       4.95164764       1.71772891       0.09438664      -0.09919925      -0.15195583
Ti      -0.02864078       3.30549775       3.30566676       0.04304685      -0.17021598       0.05350501
Ti       1.58574376       4.94398795       4.94977333       0.27863196      -0.04668867      -0.04504758
Nb       3.36352081       0.00767235       0.07285026      -0.25602701      -0.20755568       0.04057606
Ti       4.91657219       1.63976798       1.62265425       0.07372771       0.03326705       0.01058485
Ti       3.25979301       0.09376619       3.25643638       0.03951263      -0.29204947       0.09530303
Nb       4.86024364       1.55912787       4.94696564       0.22219309       0.18320161      -0.13747466
Nb       3.23191897       3.27840873       0.01174367       0.03888259       0.12273596       0.04555512
Ti       4.98412196       4.91165623       1.69770683      -0.16996408      -0.00953435      -0.16379203
Nb       3.31988415       3.21946363       3.23978822      -0.13767765       0.22856912       0.10409899
Nb       4.93698561       4.86364532       4.88841332      -0.08489940       0.07759937       0.02639913
16
Lattice="6.5600000000000005 0.0 0.0 0.0 6.5600000000000005 0.0 0.0 0.0 6.5600000000000005" Properties=species:S:1:pos:R:3:forces:R:3 group=TiNb_rattle05_b0 composition=TiNb energy=-142.8571014404297 pbc="T T T"
Ti      -0.02120579       0.00507603       0.00458645       0.10375257      -0.12435792      -0.12890688
Ti       1.58338373       1.61616770       1.69714809       0.05834879       0.02710757      -0.07824351
Nb      -0.05316546      -0.04871055       3.27439317       0.24195375       0.17319286       0.04887848
Nb       1.61311137       1.67712774       4.92713962      -0.03960458      -0.11588208       0.02394431
Ti       0.02732675       3.29574885      -0.02086328      -0.01199348      -0.01139505       0.00151060
Ti       1.59543960       4.89104703       1.63092164       0.15579736       0.16336428      -0.00371721
Ti       0.01354696       3.34919924       3.30336401      -0.08231488      -0.21920361      -0.03273688
Nb       1.69476482       4.91381958       4.90680845      -0.11283615       0.16160181       0.11611861
Nb       3.29557328       0.08279549      -0.00545472      -0.04173914      -0.14661941      -0.01753086
Ti       4.99370456       1.54641523       1.55127196      -0.14287132       0.30899554       0.21635610
Nb       3.33427665       0.02639526       3.20638150      -0.19235292       0.01194778       0.14210600
Ti       4.92596160       1.65824968       4.89794165      -0.03699233      -0.02275931      -0.02712856
Ti       3.26693725       3.29872420       0.00461090       0.03164043      -0.09169503       0.07132788
Nb       4.93858805       4.86008972       1.69169862      -0.02775830      -0.06133026      -0.29759318
Nb       3.21498701       3.28589911       3.27596748       0.18693285      -0.14571446      -0.14732103
Nb       4.95400220       4.85107158       4.94169835      -0.08996264       0.09274726       0.11293611
16
Lattice="6.5600000000000005 0.0 0.0 0.0 6.5600000000000005 0.0 0.0 0.0 6.5600000000000005" Properties=species:S:1:pos:R:3:forces:R:3 group=TiNb_rattle05_b0 composition=TiNb energy=-142.7897186279297 pbc="T T T"
Ti      -0.00467906       0.06881190      -0.02887523       0.05009333      -0.15231554       0.02987733
Nb       1.66992423       1.63844906       1.58305966      -0.22596633      -0.12573111       0.15104063
Ti       0.06572226      -0.03058387       3.29233911      -0.06490693       0.03325145      -0.01564636
Ti       1.68133006       1.64811267       4.97803358      -0.09650274       0.04834098      -0.23194060
Nb      -0.03579063       3.33856741       0.01406096       0.27674058      -0.21193138      -0.18521929
Ti       1.71319819       4.94563799       1.57117189      -0.16497798      -0.03536600       0.11203818
Nb      -0.02308760       3.25634622       3.27198514       0.37005758      -0.00912711       0.10062984
Ti       1.77881669       4.93488911       4.90852533      -0.28120753      -0.00498552      -0.04975661
Ti       3.32373041       0.08100935      -0.01044555       0.01136857      -0.17354919       0.02784820
Nb       4.87549816       1.60846204       1.63758720       0.24348255      -0.17612493      -0.04307716
Ti       3.27823450       0.01222480       3.22043772       0.11420301      -0.06896842       0.06767955
Ti       4.89089979       1.64450726       4.93501838       0.08144429       0.01509577      -0.09412219
Nb       3.21199298       3.32351681      -0.02250796       0.11658157      -0.11111750      -0.07419197
Nb       4.98304786       4.84970464       1.54914061      -0.12674499       0.47733659       0.32765397
Nb       3.34041489       3.23034058       3.23427991      -0.26873344       0.13087583       0.13985553
Nb       4.94637729       4.87121857       4.94007963      -0.03493160       0.36431611      -0.26266909
16
Lattice="6.5600000000000005 0.0 0.0 0.0 6.5600000000000005 0.0 0.0 0.0 6.5600000000000005" Properties=species:S:1:pos:R:3:forces:R:3 group=TiNb_rattle10_b1 composition=TiNb energy=-142.46441650390625 pbc="T T T"
Ti      -0.08429502       0.02865025       0.03765069       0.20245028      -0.11122144       0.06590068
Ti       1.69508251       1.52168795       1.65368802      -0.15003000       0.38096529       0.16267404
Nb      -0.08728705       0.03580396       3.42095708       0.60890007      -0.06669552      -0.40957335
Ti       1.59029336       1.61374529       4.98586475       0.14203987      -0.02338435      -0.28059849
Nb       0.02530222       3.33742518      -0.04470918      -0.09526047      -0.13794327       0.14442903
Ti       1.70571512       4.80376949       1.60949442      -0.32547185       0.19908717       0.09098323
Ti      -0.04644718       3.25439275       3.31562738       0.35603195       0.06868210      -0.05749940
Nb       1.56786762       4.92258543       4.82748903       0.28847578       0.07195991       0.16984399
Nb       3.18619912       0.00932984       0.11101141       0.12227911      -0.13728680      -0.39111960
Nb       5.08229856       1.69773109       1.78653747      -0.41060713       0.14361422      -0.57946253
Ti       3.39461740      -0.03409874       3.17130012      -0.52827573       0.27698630       0.41858992
Nb       4.82830974       1.59081348       4.99526430       0.02281460       0.20874867       0.08376293
Ti       3.20859648       3.20358817      -0.11800292       0.31106949       0.27571368       0.31049991
Nb       4.91164864       5.02218320       1.65234369       0.26534510      -0.41422817      -0.39937460
Nb       3.41327999       3.44119109       3.26818731      -0.47755855      -0.59204072       0.03175029
Ti       4.97772335       4.97710650       4.80480565      -0.33220226      -0.14295726       0.63919407
16
Lattice="6.5600000000000005 0.0 0.0 0.0 6.5600000000000005 0.0 0.0 0.0 6.5600000000000005" Properties=species:S:1:pos:R:3:forces:R:3 group=TiNb_rattle10_b1 composition=TiNb energy=-142.55630493164062 pbc="T T T"
Ti      -0.05536382      -0.03906871      -0.16935771       0.10985082       0.11428648       0.19541125
Ti       1.42527456       1.56038856       1.58157099       0.43062627       0.10554704       0.10859984
Nb       0.07826683       0.00228822       3.23947825       0.00920008       0.12501025       0.45293376
Ti       1.58168714       1.73726645       4.94134697       0.14828283      -0.23253359      -0.09085067
Ti      -0.00495254       3.23681122       0.05567828      -0.19050311       0.08971830       0.05195212
Ti       1.52528895       4.93754830       1.66272220       0.45768070       0.08396725      -0.33026963
Nb       0.02313495       3.41075596       3.23709661      -0.12873206      -0.44609666       0.00672883
Nb       1.69632352       4.78162897       5.02784973      -0.11975482       0.35009155       0.03526655
Nb       3.20536980       0.08465752      -0.05094698       0.09248641      -0.21512721       0.10614693
Ti       4.90930817       1.41154993       1.73103559       0.01448742       0.64446485      -0.23237208
Nb       3.29363393       0.01804936       3.28381550      -0.26719433       0.05132104       0.15242828
Nb       5.01737416       1.84377657       4.85882507      -0.23714104      -0.35131505       0.05566694
Nb       3.35055605       3.15647770       0.07792958      -0.12713823       0.25264356       0.25987858
Nb       5.01003912       5.01206260       1.71715428      -0.43946487      -0.33807492      -0.31127596
Ti       3.14492926       3.36898227       3.33290639       0.40095508      -0.23698139      -0.34006444
Ti       4.93801468       4.93301448       4.99211319      -0.15364105       0.00307851      -0.12018043
16
Lattice="6.5600000000000005 0.0 0.0 0.0 6.5600000000000005 0.0 0.0 0.0 6.5600000000000005" Properties=species:S:1:pos:R:3:forces:R:3 group=TiNb_rattle10_b1 composition=TiNb energy=-142.42579650878906 pbc="T T T"
Ti      -0.08572588       0.03364028      -0.03314171       0.24636756       0.15484625      -0.04802859
Ti       1.77922056       1.73317404       1.78900709      -0.60456979      -0.39471915      -0.42940685
Nb       0.03697796       0.00227291       3.28198240       0.14012563       0.00883210       0.03977966
Ti       1.76599718       1.77658044       4.84064974      -0.27308846      -0.35388887       0.28814715
Ti      -0.03511394       3.19049986       0.07093273       0.15940683       0.18196775      -0.10008296
Ti       1.63267981       5.02116767       1.58622173      -0.21545759      -0.26176360       0.12549706
Nb      -0.02863423       3.23783135       3.27013274       0.37887722       0.45614856      -0.09229396
Nb       1.83650878       4.83593528       4.91661782      -0.65822774      -0.03835829       0.08848433
Nb       3.26502892      -0.02789870       0.06254971      -0.17133565       0.45614854      -0.32220131
Nb       4.83311463       1.62900477       1.71911929       0.54385257      -0.16599023      -0.56756169
Nb       3.29454639      -0.04273339       3.31923277      -0.17165083       0.14211804       0.07718645
Ti       4.95315451       1.83320580       4.76460127      -0.10081178      -0.51488674       0.58915257
Ti       3.27072945       3.26476239       0.04905173       0.11983019       0.03183122      -0.16641428
Nb       4.79492119       4.92897748       1.62246090       0.49077094      -0.14939231      -0.04736998
Ti       3.33854465       3.14588159       3.11498941      -0.20245156       0.87028182       0.47157815
Nb       4.91676912       5.01766686       4.92045096       0.31836253      -0.42317507       0.09353425
54
Lattice="9.84 0.0 0.0 0.0 9.84 0.0 0.0 0.0 9.84" Properties=species:S:1:pos:R:3:forces:R:3 group=TiNb_rattle10_b9 composition=TiNb energy=-480.47808837890625 pbc="T T T"
Ti      -0.01639411      -0.01464926      -0.11116609       0.10803230       0.02474488       0.34767288
Ti       1.70725544       1.60948908       1.71737506      -0.25349227       0.04116675      -0.26651490
Nb       0.01216561       0.06110389       3.24259228      -0.48894927      -0.21997133      -0.38026199
Nb       1.44747935       1.64496921       4.84727650       0.60498768       0.05409695       0.31870124
Ti       0.05511960      -0.02081811       6.61542139       0.02179313       0.06382556      -0.22767511
Ti       1.55903515       1.78406424       8.23821944       0.13906276      -0.30392444      -0.26808438
Nb      -0.02369201       3.27067058      -0.01709067       0.00305650      -0.09515470      -0.02050702
Ti       1.59488841       4.81916752       1.62651820       0.09093738       0.24046473      -0.30222365
Nb       0.04588642       3.20404964       3.22601428      -0.50085336       0.30413717      -0.17616452
Nb       1.55583331       4.88574313       4.97832754       0.46950281       0.12526137      -0.22137031
Nb       0.02466894       3.38034945       6.47723471      -0.37829137      -0.31691381       0.16565654
Ti       1.72090903       4.84191476       8.05107664      -0.04621588       0.11100185       0.48294133
Nb      -0.07802722       6.46502109      -0.08250433       0.69748437       0.29992184      -0.17481619
Nb       1.74122219       8.19089110       1.61469849      -0.74698257       0.15618917      -0.28877485
Ti       0.06965331       6.63554103       3.32901222      -0.16994219      -0.10765988      -0.35422266
Nb       1.53581404       8.26947722       4.79002592       0.45086926      -0.03643204       0.45976275
Nb       0.04073783       6.54365014       6.49909244      -0.30020833       0.11678259       0.30226573
Ti       1.73583455       8.23740963       8.21008251      -0.21655160       0.07823114      -0.03864622
Ti       3.28049073      -0.00078265       0.00344832       0.10177845       0.26229969      -0.20010340
Ti       5.02213583       1.69340678       1.62357471      -0.14582333      -0.09892093      -0.00924585
Nb       3.26533760       0.02768983       3.12724332       0.34645301       0.08690640       0.36019751
Ti       4.83205244       1.65237997       5.04146183       0.49182802       0.20650032      -0.75895643
Nb       3.42164752       0.19130706       6.33096601      -0.75954384      -0.62336898       0.62278658
Ti       4.95779601       1.60624475       8.12578847       0.10296031      -0.03608179       0.29393280
Ti       3.24696206       3.04554393       0.00370014       0.10546824       0.42604148       0.05986904
Nb       4.97057738       4.96951443       1.59882797      -0.20648471      -0.24072894      -0.14710809
Nb       3.30992447       3.40653157       3.23295117      -0.01390713      -0.45214087       0.09939407
Ti       4.90942918       4.96031396       4.77567383      -0.22372229       0.07409046       0.44531158
Ti       3.43388276       3.13356189       6.57465811      -0.48733380       0.55216980      -0.12339567
Ti       4.82137214       4.81198752       8.36930633       0.17331301       0.29280397      -0.26417834
Nb       3.47343211       6.85137892       0.06616416      -0.70261145      -1.00817478      -0.44643107
Ti       4.87651731       8.24451451       1.60308235       0.50708717       0.13682596       0.40412837
Nb       3.08241485       6.49230309       3.16244857       0.60531855       0.15770240       0.50598109
Ti       4.93281163       8.21294192       4.92228942      -0.19042119      -0.28325251      -0.24815892
Nb       3.15228936       6.68786378       6.66593089       0.39801085      -0.35192057      -0.53054142
Nb       4.94010825       8.25010894       8.10346045      -0.08778733       0.17795542       0.24765155
Nb       6.61635189       0.02434199      -0.08058647      -0.10414197      -0.01670569       0.13292418
Ti       8.11313185       1.56981809       1.52629069       0.17098007       0.16774829       0.30310977
Ti       6.44079725       0.03576439       3.37564298       0.21569416      -0.11562055      -0.19391793
Nb       8.07746601       1.61022134       4.88454375       0.11506689       0.10866000       0.02217262
Nb       6.58548767      -0.09165577       6.60463187       0.12971038       0.25400221      -0.25767544
Ti       8.24723854       1.58029696       8.02190268      -0.04373756       0.27676183       0.23712316
Nb       6.59584504       3.26914757       0.03466084      -0.00688490      -0.03513562      -0.11852617
Nb       8.26781674       5.15649568       1.60721732       0.09888309      -0.87435615       0.02095959
Ti       6.49160055       3.28895141       3.28645066       0.22752550      -0.04887014      -0.11532950
Ti       8.11671940       5.05355087       4.69851691       0.20988974      -0.40721050       0.61360556
Ti       6.55265007       3.24189830       6.54953764      -0.04870614       0.24262685      -0.11906298
Nb       8.10594945       4.77893826       8.08188745       0.04927318       0.34957695       0.06831188
Nb       6.63346855       6.63815707       0.00989536      -0.26343077      -0.13311058      -0.37859333
Ti       8.08736120       8.19047067       1.59369529       0.37190640       0.23169135       0.25993195
Ti       6.59975940       6.33536014       3.13258307      -0.46680477       0.91075462       0.39122853
Nb       8.25182767       8.19536716       4.94698427      -0.30504179       0.00126961      -0.21887022
Nb       6.41403506       6.62362420       6.56949671       0.31859359      -0.50979185      -0.12157735
Ti       8.28808043       8.19392532       8.21736577      -0.16759686      -0.21676506      -0.19468655
54
Lattice="9.84 0.0 0.0 0.0 9.84 0.0 0.0 0.0 9.84" Properties=species:S:1:pos:R:3:forces:R:3 group=TiNb_rattle10_b9 composition=TiNb energy=-480.2314453125 pbc="T T T"
Ti       0.01066202       0.13043232      -0.11455477       0.06520567      -0.29904857       0.11289611
Nb       1.70025054       1.63815501       1.54012712       0.06081003      -0.57086897       0.65787745
Ti      -0.10768443       0.11549232       3.27993449       0.24711955      -0.02606020      -0.17455433
Nb       1.60360400       1.66354640       4.90386825       0.19546607      -0.16249824      -0.34938741
Nb      -0.03596362       0.04754872       6.49832548      -0.02953437      -0.14117871      -0.25192112
Nb       1.75727855       1.49184448       7.96356033      -0.87338436       0.63931865       0.87404263
Nb       0.00037460       3.11153642       0.30765159      -0.37537017       0.51076996      -0.88272822
Ti       1.56726521       5.03575209       1.52023220       0.28571177      -0.30689764       0.45656645
Nb       0.03250865       3.23956089       3.45123168      -0.09361047       0.25303328      -0.60674906
Ti       1.74019924       4.84110541       4.98356456      -0.14006132       0.07249174      -0.27561638
Ti      -0.01593280       3.45953073       6.47928428      -0.02395162      -0.48328412       0.50507408
Ti       1.57513538       4.75344042       8.31853066       0.18845066       0.09553687      -0.11488272
Nb       0.07990013       6.52353573      -0.01286984      -0.25883895       0.18835342       0.12031991
Nb       1.52864515       8.23094927       1.68095389       0.29162627       0.22102185      -0.34257770
Ti       0.02542819       6.70126860       3.27557399      -0.24857683      -0.64346182       0.04641156
Nb       1.61575852       8.18514654       4.70222520      -0.15681139       0.34475052       0.66526079
Ti       0.13271969       6.43044884       6.62888639      -0.42898396       0.23199970      -0.62761915
Nb       1.47189443       8.07039735       7.96617197       0.57253706       0.55589789       0.62805665
Ti       3.32351178      -0.05353427      -0.17837041      -0.28545260      -0.30989096       0.41163343
Nb       4.92059946       1.53944312       1.51156064      -0.30896458       0.17687710       0.52888912
Ti       3.35646624      -0.10010742       3.34010623      -0.08018477       0.30887264      -0.19724579
Nb       4.90144456       1.68992320       4.87859973       0.09964721      -0.33766750      -0.27839410
Ti       3.32375084       0.21237772       6.62526585       0.08548546      -1.19911432      -0.74250561
Ti       4.92037625       1.53341163       8.19841529       0.40070263       0.30497789       0.04451105
Nb       3.16164900       3.14057058      -0.01542266       0.49783921       0.53322357      -0.19093384
Ti       4.97859405       4.72971066       1.72579201      -0.02777647       0.67520785      -0.65605468
Nb       3.44415549       3.38545700       3.19592581      -0.78717715      -0.16241401       0.11913657
Ti       4.88566344       4.97198863       5.02039008       0.22257358      -0.03511722      -0.11447908
Nb       3.38525493       3.14412511       6.47716442      -0.23716980       0.74465716       0.37256965
Ti       4.86311499       4.88056591       8.26597702       0.04041938      -0.05748595       0.04792505
Nb       3.29617972       6.63961189      -0.01846802      -0.03243911      -0.35320842       0.11741668
Ti       4.94364664       8.13945961       1.69831400      -0.09971236      -0.15408739      -0.09204561
Ti       3.13346900       6.56485569       3.40750078       0.42685056      -0.26325247      -0.64655006
Ti       4.83453272       8.00171111       5.01817016       0.25226244       0.48760992      -0.07727080
Nb       3.20256420       6.55121457       6.45979308       0.10616651      -0.29967299       0.46965724
Nb       4.84141293       8.14437298       8.15776774       0.23048818       0.13061997       0.09725955
Nb       6.50340101       0.05599791       0.17123924       0.22042450      -0.82319993      -0.84070319
Ti       8.07755269       1.46683537       1.59218100       0.42708719       0.33018345       0.47850814
Nb       6.59810924      -0.06959501       3.36988866      -0.24960747       0.01684003      -0.20148548
Ti       8.17659215       1.72933129       4.96796870      -0.04790062       0.01578664      -0.18283260
Nb       6.60323546       0.03435101       6.37921228      -0.29343554      -0.33175659       0.49192750
Nb       8.12881522       1.64743580       8.08725319       0.41743571       0.23059185       0.23992047
Ti       6.72319718       3.06477667      -0.00958430      -0.35776055       0.64293092      -0.16823235
Ti       8.21184561       4.89627910       1.55980174       0.05102777       0.01389536       0.28852972
Nb       6.48721901       3.30326573       3.23175756       0.52714950      -0.14551353       0.09526403
Ti       8.17837350       4.81681178       4.91886944      -0.10922000       0.52256519      -0.02190347
Nb       6.52680880       3.26156962       6.55548876       0.06196200       0.35866082       0.17149365
Nb       8.15710650       5.26617808       8.17090269       0.63239479      -1.60762775       0.38945714
Ti       6.63669113       6.46245968      -0.04825109      -0.58013523       0.44732928       0.45729089
Ti       8.17677750       8.07197893       1.64418349       0.07980946       0.25760740      -0.11314384
Nb       6.59222006       6.56350329       3.35056827      -0.05504284      -0.15958609      -0.05040398
Ti       8.21410142       8.34199639       4.82889729       0.10029916      -0.59737480       0.35687745
Nb       6.58687180       6.57482815       6.77805627      -0.37540832       0.37653506      -1.06355321
Ti       8.25715243       8.36041069       8.22169075      -0.23044157      -0.21787812       0.01900082
54
Lattice="9.84 0.0 0.0 0.0 9.84 0.0 0.0 0.0 9.84" Properties=species:S:1:pos:R:3:forces:R:3 group=TiNb_rattle10_b9 composition=TiNb energy=-479.5612487792969 pbc="T T T"
Ti       0.05297387       0.07895642       0.20491637      -0.10430311      -0.27341104      -0.79210001
Ti       1.63048156       1.77447976       1.59720866       0.22650720      -0.07079673       0.05595486
Nb       0.06328015      -0.01131932       3.15859516      -0.07653633       0.21186298       0.61723351
Nb       1.60338407       1.59993730       4.87579713       0.29817408       0.26470330       0.08238138
Nb       0.06751245      -0.01494918       6.60086256      -0.66520298       0.16593237       0.07601354
Nb       1.53815719       1.78479648       8.12359465       0.22345591      -0.43558887       0.58622396
Ti       0.02588834       3.45524907       0.03856589      -0.30900988      -0.18461317       0.10970372
Ti       1.61957704       5.01193274       1.63239494       0.00547486      -0.11117341      -0.01723355
Nb      -0.04126814       3.26339288       3.32181059       0.19820459       0.11577555      -0.25709432
Ti       1.56694237       4.89532119       4.92219544       0.20121261       0.10898048      -0.22175080
Nb      -0.19725685       3.38242907       6.66671880      -0.18613347      -0.63429475      -0.65094829
Nb       1.46244426       4.73713387       8.00111413       0.45423484       1.18382454       0.73929191
Nb      -0.10896731       6.67162473      -0.04508643       0.54718006      -0.59449345       0.03424007
Nb       1.47820817       8.14903237       1.75851779       0.70902354       0.19708660      -0.50887090
Nb      -0.14437620       6.62509564       3.19080057       0.68009675      -0.39176619       0.39911518
Ti       1.58449206       8.21167598       5.05629567       0.09440015       0.12281105      -0.63515192
Ti      -0.09140075       6.54159288       6.51035687       0.07436547       0.07396089       0.10610213
Nb       1.48166648       8.22516704       8.22739244       0.21027613      -0.03081803       0.13779840
Nb       3.49339142      -0.09774557      -0.03892977      -0.84260547       0.18040185       0.07744086
Nb       4.85914126       1.54300536       1.71449848       0.24203594       0.27644312      -0.37081069
Ti       3.27360824       0.08316789       3.12224811      -0.19341755      -0.26183951       0.42412654
Ti       4.87611591       1.66253346       4.99858975      -0.18471359      -0.09724581      -0.12109027
Nb       3.24076193       0.04766804       6.63861306       0.11760436       0.08089218      -0.25845936
Nb       4.89361318       1.65501706       8.29604037       0.15354972       0.14323732      -0.37636441
Ti       3.29105073       3.34512112       0.01376978      -0.08508063      -0.06751949       0.06785320
Ti       5.03520410       4.89450716       1.70076522      -0.49805230       0.25139612      -0.42160824
Nb       3.44529251       3.34473494       3.25365560      -0.60096610       0.15551111       0.27151695
Ti       5.04266703       4.89513773       5.08669973      -0.36646309       0.13178167      -0.31595695
Ti       3.14660828       3.38348015       6.66038961       0.51591057      -0.37368906      -0.53039974
Nb       4.68374436       4.98404906       8.29803478       0.43366393      -0.17800489      -0.40857625
Nb       3.27200844       6.63272348      -0.00526945      -0.15840581      -0.21709381       0.08930343
Ti       5.03257963       8.21521400       1.58521601      -0.62316346      -0.11499587       0.20967509
Ti       3.25168359       6.63935201       3.08407900       0.13158178      -0.18977609       0.54687774
Ti       4.92201652       8.30780454       4.83178639      -0.07750494      -0.32507896      -0.00164852
Ti       3.14041186       6.84225534       6.47672696       0.09392215      -0.82664520      -0.02166760
Ti       4.77103594       8.08502555       8.00628592       0.42958876       0.19708690       0.18927485
Nb       6.56586301      -0.18313350      -0.05255313      -0.27669132       1.04423785      -0.45822561
Nb       8.19505049       1.47215121       1.68467030      -0.22843894       0.81125426      -0.17109971
Ti       6.47692776      -0.00956190       3.27237884       0.15626633       0.18670368       0.29150206
Ti       8.32350704       1.55988626       4.85767031      -0.22503175      -0.01807170       0.04710764
Ti       6.52041908      -0.11119599       6.45970220       0.18849622       0.26219189       0.28572699
Ti       8.20364214       1.74951523       8.38051197      -0.08324930      -0.44173497      -0.25775260
Ti       6.51608408       3.27190706       0.04098683      -0.02980059      -0.02041904      -0.03041165
Nb       8.13313009       5.03397633       1.62583515       0.42178127      -1.08255577      -0.39407128
Nb       6.44133763       3.27004839       3.13921028       0.46498206      -0.18424982       0.59185761
Nb       8.26283739       4.95991270       4.85325494      -0.47391981      -0.22404283       0.12546512
Ti       6.55773446       3.08199518       6.39516571       0.04163102       0.23848230       0.36451149
Ti       8.01058679       4.93304817       8.08180151       0.10625365      -0.24930975       0.34745792
Nb       6.66508618       6.68991941      -0.04045680      -1.81564641      -1.56440854       0.02819706
Nb       7.91856409       8.19297037       1.63750376       1.28384483       0.79470688       0.39565814
Ti       6.67170691       6.52429985       3.02192730      -0.83500135      -0.04844577       1.37399817
Nb       8.31202436       8.16308597       4.86106302      -0.56648499       0.23971814       0.31804579
Ti       6.54580442       6.38947445       6.52493709      -0.23848580       0.35754412      -0.25363874
Nb       7.99947757       7.94720039       8.24685150       1.04058981       1.41555560      -1.51472402
16
Lattice="6.5600000000000005 0.0 0.0 0.0 6.5600000000000005 0.0 0.0 0.0 6.5600000000000005" Properties=species:S:1:pos:R:3:forces:R:3 group=TiNb_rattle18_b2 composition=TiNb energy=-140.40611267089844 pbc="T T T"
Ti       0.19926190      -0.05487176       0.11372481      -1.40822852       0.55615431       0.09282593
Ti       1.51810040       1.95243712       1.58880100       0.31272256      -0.21448655      -0.11515955
Nb       0.10027111      -0.15256850       3.47697305      -0.98281640       0.96534830      -1.17000425
Nb       1.68116077       1.67916025       4.88218821      -0.17449223       0.70597976       0.45404688
Nb      -0.23787636       3.36863201       0.05813849       0.65348125      -0.43194813      -0.02954648
Ti       1.60861411       4.94502002       1.52433196      -0.38421094      -0.01607621       0.83531988
Ti       0.12698376       3.42471618       3.33833634      -0.45959789      -0.47502297       0.01154029
Nb       1.46909126       5.15581186       4.98371995       1.43696856      -1.49192905       0.24262375
Ti       3.14108759       0.11474806       0.05708726       0.45625991       0.28409210      -0.02260228
Nb       5.14758797       1.40279976       1.92257660      -0.23139092       1.13136804      -0.82196879
Ti       3.14624917       0.26711875       2.92152944      -0.39820930      -0.67248523       1.05013394
Ti       4.69288035       1.51895016       4.95907947       0.77999461      -0.02902472       0.23478723
Nb       3.45840746       3.75266374       0.17531560      -1.68249667      -2.68298221      -0.09121625
Ti       4.63996976       4.92802577       1.79885742       1.87791944       0.91760051       0.27370739
Nb       3.32789042       3.39633493       3.41708956      -1.84231603      -1.55276930      -1.51812196
Nb       4.67380476       4.64989431       4.79524863       2.04641271       3.00618172       0.57363445
16
Lattice="6.5600000000000005 0.0 0.0 0.0 6.5600000000000005 0.0 0.0 0.0 6.5600000000000005" Properties=species:S:1:pos:R:3:forces:R:3 group=TiNb_rattle18_b2 composition=TiNb energy=-139.7543487548828 pbc="T T T"
Nb       0.06521203      -0.00069553       0.00014599      -0.55379397       0.54449195       0.09354259
Nb       1.46272624       1.91808607       1.61273251       0.52666688      -2.42457986       0.00111577
Ti       0.02963795      -0.15185868       3.10170892      -0.96676928       1.20754421      -0.24925578
Ti       1.56742618       1.43904669       5.00442744      -0.14086774       1.89063954      -0.60164469
Ti      -0.33352254       3.46947540       0.23159604       1.21721077      -0.73251688      -1.38734531
Ti       1.55465552       5.00158370       1.46065315       0.28248298       1.26226926       0.35911602
Nb       0.05166587       3.36788419       2.95620812      -0.78067327       0.10467398       2.05915022
Nb       1.49218997       5.36989198       4.63128240       1.06081808      -2.35141230       1.48307717
Ti       3.45366505       0.27742921      -0.16508473      -1.05521035      -0.88384634       0.71630311
Ti       4.88741357       1.67125797       1.36721615       0.02540803      -0.39610723       1.04570544
Nb       3.40162509       0.04514519       3.28184660      -0.54311264       0.21020292      -0.58449090
Ti       4.82572666       1.47459040       4.69007764       1.03116941       1.16285622       0.41078478
Nb       3.07958347       3.43100233       0.44497871       0.43352568      -0.32177287      -3.31496763
Nb       4.72710909       5.03216876       1.67384847       0.66301453       0.82448709       0.09221944
Nb       3.37343181       3.34200438       3.15844932      -0.40515217      -0.18776235       1.56546462
Ti       5.00450472       4.88410043       5.24588627      -0.79471672       0.09083318      -1.68877518
16
Lattice="6.5600000000000005 0.0 0.0 0.0 6.5600000000000005 0.0 0.0 0.0 6.5600000000000005" Properties=species:S:1:pos:R:3:forces:R:3 group=TiNb_rattle18_b2 composition=TiNb energy=-140.57794189453125 pbc="T T T"
Ti       0.18752817       0.07574336       0.23357069      -0.96872562       0.79092538      -0.97492611
Ti       1.63051415       1.80119943       2.01797798      -0.19064572      -0.48777407      -1.46895921
Nb       0.22638597      -0.16443318       3.39674212      -1.67866123       1.56582558       1.17718673
Nb       2.05245279       1.57597757       4.86464675      -2.72901011       0.22388512       1.23210216
Nb      -0.07764912       3.31550767       0.05958200      -0.03259815      -0.36840075       0.05685733
Nb       1.43754888       5.18613406       1.73583416       1.64661348      -1.32284391      -0.08995360
Nb      -0.14899718       3.36740016       3.17809646       0.38189277      -0.67825353       0.76730210
Nb       1.68735169       4.84895978       5.22475976      -0.86950266       0.63946337      -1.87899554
Nb       3.35023939       0.07828933      -0.04241855       0.48349619      -0.12221537       1.09490657
Ti       4.69825607       1.82494457       1.68616032       0.44041163      -0.50482464      -0.21512577
Ti       3.37003526      -0.04654367       3.43626275       0.34745827      -0.44718093      -0.63056087
Nb       4.69813128       1.90792148       4.98284848       1.72343922      -0.84419709       0.35421327
Ti       3.03499141       3.66538238       0.02983136       1.20359015      -1.47671402       1.32594097
Ti       4.90067572       5.00350835       1.74681157      -0.33250585       0.08274325      -0.31666631
Ti       3.15382811       3.10610193       3.37854810       0.37370145       2.33617163      -0.92255616
Ti       4.91186071       4.78603234       4.84346527       0.20104644       0.61339027       0.48923466
16
Lattice="6.5600000000000005 0.0 0.0 0.0 6.5600000000000005 0.0 0.0 -0.1944206188332092 6.5600000000000005" Properties=species:S:1:pos:R:3:forces:R:3 group=TiNb_strain_shear_b0 composition=TiNb energy=-142.89373779296875 pbc="T T T"
Nb       0.04554806      -0.05779502       0.03874135      -0.03272971       0.28925425       0.04762094
Ti       1.59958336       1.61279781       1.63955967       0.12694389      -0.04125790      -0.00993944
Ti      -0.00835948      -0.05818153       3.31232144       0.00122320      -0.09566869      -0.05404084
Ti       1.64043886       1.46546427       4.92549795      -0.03842035       0.07967718       0.03782290
Nb       0.00138053       3.31276190      -0.00689229       0.03124171      -0.22842401       0.06338385
Ti       1.61614793       4.83127430       1.65618948       0.12183614       0.05774068      -0.03642841
Ti      -0.01011085       3.19564705       3.29655622      -0.00823873      -0.01173286       0.06893192
Nb       1.62817912       4.78792363       4.89056730       0.04033653       0.04038483      -0.07893908
Nb       3.32003421       0.03433978      -0.01624033      -0.13732737      -0.05381194       0.16400398
Nb       4.92630828       1.60982930       1.67207728       0.03606576      -0.04379205      -0.02202668
Ti       3.28161645      -0.08893593       3.29076788      -0.00523417      -0.03527691      -0.07115899
Ti       4.91531805       1.51736973       4.91046971       0.07074580      -0.03290904       0.12735906
Nb       3.25543945       3.27103654      -0.05009845       0.00101012       0.01106442       0.22507222
Ti       4.95148876       4.86347757       1.65235778      -0.11096393       0.01277652       0.00156265
Nb       3.29126381       3.16305322       3.31159548      -0.05349258       0.03140136      -0.14859298
Nb       4.93470836       4.79444194       4.99392974      -0.04299623       0.02057412      -0.31463116
16
Lattice="6.5600000000000005 0.0 0.0 0.15639357740848422 6.5600000000000005 0.0 0.0 0.0 6.5600000000000005" Properties=species:S:1:pos:R:3:forces:R:3 group=TiNb_strain_shear_b0 composition=TiNb energy=-142.8664093017578 pbc="T T T"
Ti       0.07764757       0.01240704      -0.02512864      -0.31380436      -0.03343216       0.08755352
Nb       1.65461750       1.63029460       1.60871988       0.14954104       0.01419300       0.14839539
Ti      -0.03353926       0.00515215       3.29412762       0.08282264       0.03975617      -0.06398259
Ti       1.64873782       1.60155477       4.92481341       0.10225087       0.12962866      -0.11583924
Nb       0.17431641       3.28780042       0.05573935      -0.27034682       0.07923593      -0.28816435
Nb       1.74125532       4.97100343       1.64303691       0.13504070      -0.07087795       0.05841861
Nb       0.11506563       3.32278767       3.25045275      -0.10333794      -0.02881045       0.23596683
Ti       1.74365105       4.98461441       4.90827437       0.08282913      -0.12624258      -0.05383155
Nb       3.24073058      -0.01529530      -0.01342523       0.17992145      -0.03778651      -0.06459463
Nb       4.96494278       1.58872868       1.65687489      -0.00631812       0.15462980      -0.17825414
Nb       3.33269439       0.00883171       3.29206148      -0.17524551      -0.09836266       0.02666193
Nb       4.96221702       1.64093307       4.88849202       0.06116213       0.09764486       0.20335111
Ti       3.33199579       3.27563062      -0.03343167       0.12601471       0.00246951       0.05820443
Ti       5.02864337       4.91838121       1.66744974       0.00019553      -0.02679176      -0.15709339
Ti       3.36179657       3.26260041       3.28734598      -0.06056811       0.01920783      -0.02613502
Ti       5.04945078       4.93611793       4.90213296       0.00984269      -0.11446169       0.12934302
16
Lattice="6.5600000000000005 0.0 0.0 0.0 6.5600000000000005 0.0 0.1336581013056845 0.0 6.5600000000000005" Properties=species:S:1:pos:R:3:forces:R:3 group=TiNb_strain_shear_b0 composition=TiNb energy=-142.90773010253906 pbc="T T T"
Nb      -0.00398028      -0.02244057       0.05259778       0.03319003       0.09824512      -0.11100729
Nb       1.65712057       1.63897357       1.63278908      -0.03507311       0.09982707      -0.01592476
Ti       0.06824859       0.00253815       3.26283937      -0.02594873       0.04446466       0.07249436
Nb       1.75020274       1.61493575       4.89649877      -0.14605978       0.12137701       0.08830694
Ti       0.00373535       3.30857739      -0.01210867       0.01604747      -0.06652671       0.00416115
Ti       1.65468688       4.92026384       1.65248880       0.14078707       0.00153290      -0.05494283
Ti       0.04134507       3.31882578       3.25981246       0.08946858      -0.09063955       0.12293760
Ti       1.76924858       4.94233010       4.91995112      -0.06029974      -0.02028270      -0.03415371
Ti       3.29027281       0.03384843      -0.02940946      -0.00516024      -0.09070059       0.16397421
Ti       4.94443037       1.66774717       1.65558840      -0.04443272      -0.02563301      -0.02735780
Nb       3.31249497       0.04144136       3.26916330       0.13663000      -0.06518992      -0.02064240
Ti       5.02207273       1.64546405       4.95945144       0.04058523       0.04916777      -0.08029591
Nb       3.27573968       3.31694083      -0.00004366       0.00582881      -0.03288210       0.02326812
Nb       4.98955523       4.90370853       1.68610026      -0.07662610       0.07900853      -0.12903436
Nb       3.36489773       3.32572805       3.30811138      -0.07169288      -0.09776625      -0.04727171
Nb       5.05504250       4.95554882       4.91944871       0.00275624      -0.00400220       0.04548832
16
Lattice="6.776118728237053 0.0 0.0 0.0 6.776118728237053 0.0 0.0 0.0 6.776118728237053" Properties=species:S:1:pos:R:3:forces:R:3 group=TiNb_strain_vol_b0 composition=TiNb energy=-142.06398010253906 pbc="T T T"
Ti       0.03232301       0.00363205      -0.01468374      -0.06251056       0.05486941       0.07011852
Nb       1.71342362       1.66708892       1.68062512      -0.01032019       0.09806685      -0.02366906
Ti       0.05830952       0.01683246       3.40233734      -0.10304011      -0.04389674      -0.06456540
Ti       1.73220438       1.68895758       5.03151308      -0.01086698       0.03043021       0.11755572
Ti      -0.02695564       3.39838801       0.02071729       0.08232955      -0.07777610      -0.02777890
Nb       1.67714294       5.10399423       1.66584642       0.02239323      -0.07794912       0.04737134
Ti       0.01543430       3.34072624       3.35759390       0.01882465       0.10937910       0.03857580
Ti       1.67856609       5.11070983       5.11930006       0.05978668      -0.08035301      -0.11509013
Nb       3.39743209      -0.02709014      -0.02437422       0.02521735       0.10604795       0.09750038
Ti       5.05514748       1.74628642       1.73102007      -0.01212661      -0.10242866      -0.09663223
Nb       3.40203249       0.02765311       3.41697894       0.00268050      -0.12544505      -0.10742041
Nb       5.12133969       1.65683327       5.04995181       0.01100498       0.10222325       0.06115063
Nb       3.40376673       3.40859619      -0.06418772      -0.01807348      -0.07938579       0.16412967
Ti       5.10720683       5.06573470       1.67460578      -0.08408120       0.04136668       0.07982273
Nb       3.38021964       3.39735912       3.40314579       0.01149719       0.07874922      -0.08168866
Nb       5.11461122       5.08536852       5.13868742       0.06728512      -0.03389821      -0.15938003
16
Lattice="6.701431201393877 0.0 0.0 0.0 6.701431201393877 0.0 0.0 0.0 6.701431201393877" Properties=species:S:1:pos:R:3:forces:R:3 group=TiNb_strain_vol_b0 composition=TiNb energy=-142.59169006347656 pbc="T T T"
Ti      -0.04929982      -0.00064324      -0.02305898       0.06748636       0.01006832       0.01775534
Ti       1.70644385       1.64976050       1.70508711      -0.05214007       0.06172665      -0.07853916
Nb      -0.01863329       0.04660729       3.34777444       0.03002089      -0.04214343       0.00083496
Ti       1.65266484       1.67339102       5.00264982       0.08381499       0.05054815       0.09413520
Nb      -0.00470846       3.34188530      -0.02112152       0.10870723       0.01815058       0.08580188
Ti       1.63027625       5.04179222       1.71164619       0.10358500      -0.04067340      -0.09243740
Ti       0.01152110       3.34961707       3.34246305      -0.04914226      -0.00627885      -0.00152327
Ti       1.69359517       5.04248224       5.01826705      -0.05644044      -0.10079059      -0.01958169
Ti       3.31126400      -0.02003419      -0.02595246       0.08758049       0.01702390       0.04362894
Ti       5.00887453       1.66310462       1.68258886      -0.00448570       0.02113361      -0.03033497
Nb       3.31065086       0.00403254       3.36528339       0.05484773       0.00392797      -0.03895165
Nb       5.02228096       1.70347953       5.06178366      -0.01649427      -0.07771645      -0.04507033
Nb       3.39142228       3.35616096       0.03439033      -0.19145179       0.02488999      -0.04365563
Nb       5.04864599       5.05554530       1.65191591      -0.03478595      -0.01285854       0.00876065
Nb       3.38942080       3.33998722       3.35743071      -0.11518495       0.05547924      -0.03437528
Nb       5.03817906       5.03928739       4.97197186      -0.01591741       0.01751282       0.13355239
16
Lattice="6.211901012619125 0.0 0.0 0.0 6.211901012619125 0.0 0.0 0.0 6.211901012619125" Properties=species:S:1:pos:R:3:forces:R:3 group=TiNb_strain_vol_b0 composition=TiNb energy=-139.59750366210938 pbc="T T T"
Nb      -0.02312747      -0.03044228       0.01238421       0.05359823       0.05574317      -0.15960005
Nb       1.55908127       1.58039261       1.56924656      -0.04485241       0.07403988      -0.05137604
Nb       0.01306351       0.01389065       3.12297491      -0.45565984      -0.28181183       0.02426523
Nb       1.54522421       1.53585190       4.62889015       0.20338386       0.27067876       0.06200726
Nb      -0.04651655       3.14488493      -0.05644439       0.08399409      -0.17757219       0.10866287
Ti       1.53542877       4.64306972       1.57224210      -0.01793903       0.06128475      -0.11156210
Ti       0.01591855       3.09938648       3.13277702      -0.24787235       0.02896664      -0.16029312
Ti       1.53178138       4.63939591       4.59206266       0.16602397      -0.00643653       0.25989079
Ti       3.09917688      -0.00548644      -0.00256904      -0.12767839      -0.14764380      -0.02206828
Ti       4.63721718       1.53738545       1.55155461       0.13019013       0.08861026       0.11502108
Nb       3.10231304       0.00091560       3.13044787       0.27839309      -0.12508357       0.05565032
Ti       4.63892589       1.54103110       4.69954650      -0.04386988       0.09576073      -0.21392706
Nb       3.07231626       3.07218284       0.01149498       0.11379343       0.33772665      -0.40388015
Nb       4.63018184       4.62765642       1.53695224       0.03701180       0.01180232       0.29411992
Ti       3.12063258       3.17228027       3.06013349       0.03271130      -0.29736495       0.37484428
Ti       4.65411870       4.65062626       4.66971472      -0.16122860       0.01129954      -0.17175466
16
Lattice="6.720000000000001 0.0 0.0 0.0 6.720000000000001 0.0 0.0 0.0 6.720000000000001" Properties=species:S:1:pos:R:3:forces:R:3 group=TiZrNb2_md1400_b1 composition=TiZrNb2 energy=-145.3615264892578 pbc="T T T"
Nb       0.00000000       0.00000000       0.00000000       0.14023347      -0.21332520      -0.14021350
Nb       1.68000000       1.68000000       1.68000000      -0.08537017      -0.44138652       0.08534300
Nb       0.00000000       0.00000000       3.36000000       0.13964397      -0.21684201       0.13964251
Nb       1.68000000       1.68000000       5.04000000      -0.08532642      -0.43121180      -0.08532814
Zr       0.00000000       3.36000000       0.00000000       0.11399835       0.25684530      -0.11398972
Ti       1.68000000       5.04000000       1.68000000      -0.10782354       0.37791610       0.10780761
Nb       0.00000000       3.36000000       3.36000000       0.13136572       0.22405501       0.13136786
Nb       1.68000000       5.04000000       5.04000000      -0.09275122       0.44037342      -0.09274541
Ti       3.36000000       0.00000000       0.00000000      -0.14512004      -0.11741798      -0.14512011
Zr       5.04000000       1.68000000       1.68000000       0.07061279      -0.44237927       0.07061507
Nb       3.36000000       0.00000000       3.36000000      -0.14021043      -0.21332480       0.14023446
Nb       5.04000000       1.68000000       5.04000000       0.08534507      -0.44139034      -0.08536851
Zr       3.36000000       3.36000000       0.00000000      -0.10747086       0.25261992      -0.10747132
Ti       5.04000000       5.04000000       1.68000000       0.08906014       0.33070922       0.08905660
Zr       3.36000000       3.36000000       3.36000000      -0.11399268       0.25684375       0.11399440
Ti       5.04000000       5.04000000       5.04000000       0.10780583       0.37791532      -0.10782485
16
Lattice="6.720000000000001 0.0 0.0 0.0 6.720000000000001 0.0 0.0 0.0 6.720000000000001" Properties=species:S:1:pos:R:3:forces:R:3 group=TiZrNb2_md1400_b1 composition=TiZrNb2 energy=-143.87376403808594 pbc="T T T"
Nb       0.18163626      -0.06732623       0.11535739      -0.45647401      -0.40225664      -0.17997567
Nb       1.71230794       1.58080971       1.49963935      -0.27391249      -0.03418100       0.96153760
Nb      -0.18504271      -0.11978253       3.61325011       1.58586895       0.26259729      -1.42064857
Nb       1.58387187       1.74772552       5.06668458       0.70095009      -0.90874028      -0.34198847
Zr      -0.04442400       3.36871128      -0.04045619       0.09736159       0.63649237       0.66649693
Ti       1.54208869       5.22224966       2.14673129       0.09969601      -0.72862911      -1.21192348
Nb      -0.09890938       3.22428361       3.44614674       1.04184842       0.98992348      -1.07659030
Nb       1.66973391       4.97878082       5.06411235       0.23510405       0.50061917       0.07290200
Ti       3.54578056       0.08039607       0.06863440      -0.82527095      -0.71544623      -1.04978538
Zr       4.99440210       1.57038122       1.62765154       0.81953633      -0.17718747      -0.03936434
Nb       3.31370918      -0.12691679       3.41165231      -0.29671785       0.60987735       0.49825937
Nb       5.24811933       1.66130144       4.79673997      -1.46288502      -0.40751773       1.84145808
Zr       3.42536066       3.35350460      -0.18373147      -0.19383661       0.48896343       0.36045119
Ti       4.81792010       5.10901282       1.80361382       0.77743924      -0.10080507      -0.47508088
Zr       3.50429367       3.19129643       3.25481426      -1.18946123       0.51138413       0.30524585
Ti       5.11065528       5.11424844       4.85878060      -0.65924734      -0.52509338       1.08900559
16
Lattice="6.720000000000001 0.0 0.0 0.0 6.720000000000001 0.0 0.0 0.0 6.720000000000001" Properties=species:S:1:pos:R:3:forces:R:3 group=TiZrNb2_md1400_b1 composition=TiZrNb2 energy=-143.03756713867188 pbc="T T T"
Nb       0.27743654      -0.17508140       0.20524332      -1.28767467      -0.20331866      -0.92302841
Nb       1.71175375       1.48501223       1.39212051       0.16375750       0.50663257       1.59709549
Nb      -0.20963308      -0.24390348       3.73334188       1.21303976       0.95913613      -1.26883149
Nb       1.60264626       1.68609727       5.02419119       0.59404325      -0.72638041      -0.22349963
Zr      -0.04827495       3.43351105       0.02761223       0.22262752       0.16752693       0.55116671
Ti       1.38321728       5.26929439       2.29012905       0.95946610      -1.29186392      -1.89346719
Nb      -0.06609669       3.21221778       3.46601317       0.96062338       0.75227290      -1.28640938
Nb       1.62270525       4.95679123       5.04048926       0.42779535      -0.02087324       0.31800380
Ti       3.49699198       0.01117412      -0.06498725      -0.43444991      -0.36888278      -0.48139361
Zr       5.04540169       1.51786074       1.62024095       0.54042578      -0.38756081      -0.36239707
Nb       3.26992363      -0.24931446       3.51910809       0.04577005       1.20805597       0.05441749
Nb       5.28051248       1.61665848       4.74315602      -1.84719348      -0.21946231       2.46119332
Zr       3.47836412       3.44429473      -0.32038031      -0.57522535      -0.33111447       1.24349630
Ti       4.89588970       5.24644529       1.85383320       0.39207131      -0.65008795      -0.63651156
Zr       3.51925859       3.10811444       3.15923833      -1.38311946       0.74837059       0.12594849
Ti       4.99055545       4.97601586       4.92269563       0.00804356      -0.14245078       0.72421700
16
Lattice="6.720000000000001 0.0 0.0 0.0 6.720000000000001 0.0 0.0 0.0 6.720000000000001" Properties=species:S:1:pos:R:3:forces:R:3 group=TiZrNb2_md600_b0 composition=TiZrNb2 energy=-145.4039306640625 pbc="T T T"
Ti       0.00000000       0.00000000       0.00000000       0.11950181      -0.11950953       0.11901053
Nb       1.68000000       1.68000000       1.68000000      -0.17453688       0.13534668       0.18942040
Ti       0.00000000       0.00000000       3.36000000       0.12674610      -0.12674101      -0.12966532
Nb       1.68000000       1.68000000       5.04000000      -0.17117959       0.12316206      -0.18352753
Nb       0.00000000       3.36000000       0.00000000       0.16391227       0.16389613       0.16442762
Ti       1.68000000       5.04000000       1.68000000      -0.12738648      -0.13911745       0.13464409
Nb       0.00000000       3.36000000       3.36000000       0.16425449       0.16426504      -0.16262172
Zr       1.68000000       5.04000000       5.04000000      -0.18741262      -0.11417046      -0.18210411
Zr       3.36000000       0.00000000       0.00000000      -0.18041784      -0.18043348       0.16828778
Zr       5.04000000       1.68000000       1.68000000       0.18800050       0.10873684       0.18228154
Nb       3.36000000       0.00000000       3.36000000      -0.16187437      -0.16186924      -0.16217293
Zr       5.04000000       1.68000000       5.04000000       0.18928675       0.11034247      -0.18212752
Nb       3.36000000       3.36000000       0.00000000      -0.16565776       0.16565305       0.16904983
Nb       5.04000000       5.04000000       1.68000000       0.17453893      -0.13534394       0.18941863
Ti       3.36000000       3.36000000       3.36000000      -0.12895848       0.12895486      -0.13079478
Nb       5.04000000       5.04000000       5.04000000       0.17118299      -0.12317183      -0.18352647
16
Lattice="6.720000000000001 0.0 0.0 0.0 6.720000000000001 0.0 0.0 0.0 6.720000000000001" Properties=species:S:1:pos:R:3:forces:R:3 group=TiZrNb2_md600_b0 composition=TiZrNb2 energy=-145.06617736816406 pbc="T T T"
Ti       0.05521693       0.08243020       0.08736581       0.01664128      -0.12495406      -0.22240332
Nb       1.67711813       1.65581140       1.60459132      -0.12428574       0.02850650       0.34554154
Ti       0.00029905      -0.11086540       3.36207710       0.06307195       0.35663998       0.14083724
Nb       1.68484193       1.79701499       4.94678503      -0.14507926      -0.26814279       0.21601042
Nb       0.07469924       3.42756730       0.20222764      -0.16816884       0.14092049      -0.37601823
Ti       1.58747332       5.19091253       1.76420948       0.34768757      -0.44670534      -0.09537232
Nb       0.06545332       3.28799442       3.30931203       0.07474130       0.39261070       0.06443059
Zr       1.76353139       5.09268521       5.04550638      -0.44849521      -0.23808287      -0.02586110
Zr       3.49571972       0.12083277      -0.02628441      -0.47235543      -0.22266768       0.12319997
Zr       4.99298053       1.61010213       1.77272674       0.42353135       0.25377393      -0.11202648
Nb       3.34019329      -0.12150053       3.41095720       0.05006160       0.19286640      -0.27240360
Zr       5.10038979       1.82604742       5.04174601       0.20186181       0.04769275       0.14832075
Nb       3.26014150       3.56881910       0.11762860       0.30649048      -0.25978404       0.05568244
Nb       5.05553062       5.05153821       1.74627396       0.01055896      -0.29072589       0.12103289
Ti       3.35371749       3.15908480       3.31889066      -0.25286564       0.91154450      -0.02768628
Nb       5.13011333       5.14264081       5.06378577       0.11660405      -0.47349241      -0.08328476
16
Lattice="6.720000000000001 0.0 0.0 0.0 6.720000000000001 0.0 0.0 0.0 6.720000000000001" Properties=species:S:1:pos:R:3:forces:R:3 group=TiZrNb2_md600_b0 composition=TiZrNb2 energy=-144.51443481445312 pbc="T T T"
Ti       0.08589648       0.09954119       0.09716516      -0.16386929      -0.06318367      -0.32398504
Nb       1.68173133       1.61115054       1.54139248      -0.03912365       0.05982536       0.59790689
Ti       0.02910720      -0.11855536       3.42567851       0.04624052       0.75780553       0.02887162
Nb       1.66489827       1.90686000       4.89496669       0.05181189      -0.73646927       0.67537743
Nb       0.11058424       3.50070362       0.32740573      -0.29517990      -0.05456275      -0.72065115
Ti       1.58769302       5.25557004       1.82395670       0.48551503      -0.41609365      -0.32926404
Nb       0.12584828       3.32221946       3.26071095      -0.03051713       0.34006339       0.10769309
Zr       1.74305536       5.10396632       5.04675377      -0.39135051      -0.30724680       0.39218098
Zr       3.55435562       0.21726996      -0.02688891      -0.49768478      -0.32260528      -0.07189513
Zr       4.98262065       1.58850137       1.86741738       0.54073071       0.26088822      -0.40019447
Nb       3.36182357      -0.26718368       3.46189985       0.23329136       0.90519536      -0.42260727
Zr       5.17811215       1.93431113       5.01088049      -0.13665260      -0.01624377       0.50033051
Nb       3.21888897       3.73753062       0.25971901       0.59089273      -0.72544378      -0.24769059
Nb       5.10040422       5.05875987       1.82446149      -0.09183296      -0.13504542      -0.07623041
Ti       3.27867636       3.13282490       3.26721924      -0.00319935       1.11372828       0.08306442
Nb       5.24094081       5.18468015       5.08117564      -0.29907185      -0.66061187       0.20709302
16
Lattice="6.720000000000001 0.0 0.0 0.0 6.720000000000001 0.0 0.0 0.0 6.720000000000001" Properties=species:S:1:pos:R:3:forces:R:3 group=TiZrNb2_rattle05_b0 composition=TiZrNb2 energy=-145.299072265625 pbc="T T T"
Ti      -0.03221871       0.06025412      -0.08265328       0.05980595      -0.11986466       0.32147866
Zr       1.67539490       1.70970994       1.70075592      -0.22300263      -0.24183041      -0.03297018
Nb       0.00091216      -0.02066212       3.40287337       0.04108895       0.01043731      -0.24024954
Nb       1.61100180       1.65688906       5.07980986       0.26977268      -0.19050321      -0.10643506
Ti      -0.04197666       3.41172260       0.01573740       0.12887922      -0.03231367       0.06479923
Ti       1.63809639       5.06412024       1.68122604       0.06842694       0.26403043      -0.07015780
Zr      -0.05178940       3.34726574       3.38287206       0.17152202       0.13414112      -0.17813823
Nb       1.66494382       5.00981757       5.04827284       0.02929923       0.39164865       0.08011226
Nb       3.37403630       0.07044619       0.01252085      -0.08515270      -0.27949739      -0.11231796
Nb       5.00079974       1.74751842       1.64592513       0.19982721      -0.37177277       0.10797745
Nb       3.37267868       0.02738694       3.28119331      -0.05938615      -0.02763332       0.26336715
Nb       5.13198888       1.72752543       5.01994493      -0.41070390      -0.39996946       0.02807741
Zr       3.36326633       3.31430105      -0.01672754      -0.14030281       0.29244372       0.06338324
Nb       5.02268052       5.06464288       1.69398980       0.01504227       0.32551336      -0.10438991
Ti       3.32179679       3.40068965       3.41305302       0.00476471      -0.09201609      -0.12321705
Zr       5.02323623       5.05495964       5.05567632      -0.06988072       0.33718613       0.03868053
16
Lattice="6.720000000000001 0.0 0.0 0.0 6.720000000000001 0.0 0.0 0.0 6.720000000000001" Properties=species:S:1:pos:R:3:forces:R:3 group=TiZrNb2_rattle05_b0 composition=TiZrNb2 energy=-145.29705810546875 pbc="T T T"
Ti       0.02837642       0.06068115       0.05339840      -0.05614119      -0.62973851      -0.01440781
Zr       1.65384046       1.64548065       1.66904867       0.47041649       0.29984698       0.07176052
Nb       0.12379517      -0.01835914       3.24257780      -0.40546712      -0.45402390       0.12070873
Zr       1.68608894       1.68974760       5.02404196       0.24522816       0.08293784       0.03937157
Nb      -0.02398859       3.39291113       0.05968188       0.19035906       0.38051087      -0.03846684
Nb       1.68665368       4.99752859       1.72635651      -0.03150149      -0.02891622      -0.24448977
Nb      -0.06776669       3.29547902       3.36719503       0.22971818       0.62987590      -0.20743877
Nb       1.80137510       5.08053853       4.98786596      -0.50117785      -0.09758049       0.23545679
Nb       3.30024271       0.03370115       0.03075366       0.23166583      -0.19111449       0.13115816
Nb       5.13113744       1.75261590       1.69609005      -0.54950780      -0.32973024      -0.05400779
Ti       3.36009102      -0.04973104       3.38672491       0.20268944       0.06655906      -0.38895863
Zr       5.19495025       1.68552735       5.05017809      -0.56430554      -0.19797941       0.00741207
Ti       3.36934807       3.39966909      -0.03905043      -0.07893868      -0.03937292       0.26875558
Nb       4.95554060       5.01581720       1.57065726       0.15944187       0.25114894       0.33068305
Ti       3.36042203       3.34888876       3.34962828       0.06649178       0.07061061      -0.18093902
Zr       4.99461235       5.03100161       5.02051628       0.39102876       0.18696581      -0.07659791
16
Lattice="6.720000000000001 0.0 0.0 0.0 6.720000000000001 0.0 0.0 0.0 6.720000000000001" Properties=species:S:1:pos:R:3:forces:R:3 group=TiZrNb2_rattle05_b0 composition=TiZrNb2 energy=-145.20018005371094 pbc="T T T"
Ti       0.04125057      -0.05601689       0.02807993      -0.11038141       0.21336156      -0.21626200
Nb       1.79527266       1.75720241       1.72839927      -0.46688557      -0.04549126      -0.30545306
Nb       0.06961354       0.03692549       3.33697110      -0.31127390      -0.21015102       0.11560436
Nb       1.69155947       1.75090092       5.01861896      -0.24049494      -0.15628979       0.33399290
Ti      -0.09143823       3.38649416      -0.08659237       0.26635808      -0.09777780       0.21913075
Zr       1.66237326       5.03544891       1.68100249      -0.11514461      -0.20523724      -0.15604059
Zr      -0.02233729       3.25412530       3.41318323      -0.07100159       0.34641966      -0.18841586
Nb       1.74764679       5.04549754       4.99645604      -0.28281933      -0.02283201       0.24483131
Zr       3.28443080       0.02520256       0.04943915       0.18532664      -0.22430708      -0.17666858
Ti       5.02458921       1.62476607       1.68244306       0.19222051       0.03532760      -0.00618014
Nb       3.29513402       0.01468936       3.33805294       0.31903949      -0.06748624       0.05377968
Zr       4.88836322       1.65295964       5.02033590       0.51533985      -0.23374367       0.09674456
Nb       3.46976907       3.29363909       0.02500235      -0.19677463       0.38591167      -0.01827258
Nb       5.05181964       5.02988270       1.64209733       0.13991195       0.06472037       0.04014178
Nb       3.39229279       3.42027770       3.35303212       0.03642379      -0.05513346      -0.07052174
Ti       4.98876769       5.02334734       4.99005077       0.14015558       0.27270859       0.03358939
16
Lattice="6.720000000000001 0.0 0.0 0.0 6.720000000000001 0.0 0.0 0.0 6.720000000000001" Properties=species:S:1:pos:R:3:forces:R:3 group=TiZrNb2_rattle10_b1 composition=TiZrNb2 energy=-144.75418090820312 pbc="T T T"
Nb       0.02259473      -0.20437058       0.02729590       0.18344451       0.47533956      -0.02218246
Ti       1.77031124       1.69614347       1.64188973      -0.41853514      -0.06404118      -0.22527707
Ti       0.03811939       0.01814568       3.44644796      -0.30548489      -0.04127392      -0.37823334
Zr       1.80909758       1.75307565       4.97928482      -1.03145504      -0.13683757       0.76864207
Ti      -0.11161558       3.29031852       0.06320825       0.41469470       0.17779270      -0.29551208
Nb       1.59384879       5.02847032       1.71224972      -0.10533114      -0.14816652      -0.26801574
Nb      -0.04694669       3.22937350       3.29179850      -0.15737605       0.32429045       0.18920392
Ti       1.58227268       5.01276656       4.94755635      -0.34049797      -0.12979147       0.61461759
Zr       3.49299575      -0.09691196       0.02267426      -0.69561046       0.02702141       0.49785918
Nb       5.06710383       1.74791736       1.68097056       0.34835637      -0.47292772       0.24319541
Zr       3.37765500       0.00972321       3.46505687      -0.01968908      -0.02591312      -0.78801882
Nb       4.99789326       1.60725696       5.15868614       0.94538486       0.33927411      -0.37112948
Nb       3.60856738       3.36781070      -0.01083515      -0.86641812       0.14810631       0.28674427
Nb       5.11413559       5.00291245       1.65716210       0.23570594       0.12129754       0.41996118
Zr       3.24920880       3.43824726       3.41658327       0.61969709      -0.09022941      -0.63129556
Nb       4.92039115       5.07611308       5.00770556       1.19311464      -0.50394160      -0.04055895
16
Lattice="6.720000000000001 0.0 0.0 0.0 6.720000000000001 0.0 0.0 0.0 6.720000000000001" Properties=species:S:1:pos:R:3:forces:R:3 group=TiZrNb2_rattle10_b1 composition=TiZrNb2 energy=-144.23036193847656 pbc="T T T"
Nb      -0.08525930       0.00721079       0.00754169       0.86058116      -0.06753477      -0.43833795
Nb       1.73544930       1.66899130       1.61334434      -0.97591263      -0.31086317       0.90171176
Nb      -0.08216473      -0.31724800       3.42846957       0.85623038       1.58714283      -0.03170224
Ti       1.66181851       1.86186209       4.86669721      -0.01353039      -0.77676117       0.03399631
Nb      -0.02647361       3.19421969      -0.06918648       0.78574258       0.46435785      -0.22249416
Ti       1.68543175       5.08717762       1.68007600      -0.11916952      -0.18503827       0.08079186
Ti      -0.02086507       3.44540404       3.43979521       0.49795231      -0.67046642      -0.25872642
Nb       1.62706874       5.00952558       5.01783999       0.04413000      -0.05273801       0.13082524
Zr       3.40838218      -0.09168643      -0.06731891      -0.68641090      -0.07777846      -0.35879046
Zr       4.90694225       1.76551664       1.54266135       1.52712238      -1.29828155       1.88915324
Nb       3.41906289      -0.12133402       3.36314924      -0.65277791       0.41281304       0.04205885
Nb       5.08571175       1.66788124       4.96048147       0.04372144      -0.13799624      -0.46744066
Zr       3.40552352       3.22944021       0.19880165      -1.21234918       1.28981388      -1.71584296
Zr       5.23451558       4.94279801       1.67056523      -0.33220184       0.25115377      -0.28810048
Ti       3.47674256       3.49020082       3.44057404      -0.68700242      -0.40266496      -0.09285702
Nb       5.02954134       4.95243405       4.92671559       0.06387424      -0.02515842       0.79575527
16
Lattice="6.720000000000001 0.0 0.0 0.0 6.720000000000001 0.0 0.0 0.0 6.720000000000001" Properties=species:S:1:pos:R:3:forces:R:3 group=TiZrNb2_rattle10_b1 composition=TiZrNb2 energy=-144.53013610839844 pbc="T T T"
Ti      -0.04707959      -0.04063134       0.11098935       0.53046304       0.19939238      -0.28531390
Ti       1.73979783       1.55606982       1.62154887      -0.01796675       0.12016815       0.08635725
Ti      -0.08802913       0.02486089       3.47498352       0.54404688      -0.26607710      -0.17169112
Nb       1.56054410       1.52805419       5.05390656       0.22242309       0.49220067       0.01647455
Zr      -0.01155918       3.37696469       0.05007079       1.10783708      -0.59199888      -0.43040425
Nb       1.89064625       5.00464865       1.74073980      -0.87064457       0.33366263      -0.18700179
Nb       0.02635762       3.24234444       3.25875642       0.33720574       0.01820323       0.73233807
Nb       1.67031950       4.98036197       5.06076722      -0.19288079      -0.02700092      -0.08711502
Nb       3.22789247      -0.05478891      -0.09162937       0.11137623       0.64487725       0.31828272
Zr       5.07749521       1.67127664       1.71355859      -0.44444996      -0.68053126       0.00446051
Nb       3.18499161      -0.01940683       3.41619794       0.24594297       0.16417146      -0.06242251
Ti       4.99865026       1.65137625       4.94026959      -0.26957884       0.07189055       0.25123927
Nb       3.60220306       3.50341271       0.05599507      -1.72591496      -1.49452388      -0.44970042
Zr       5.15701549       4.94106090       1.70439225      -0.16774680       1.05553865       1.08809161
Nb       3.18440985       3.32767015       3.26344110       0.34902963      -0.41323519       0.81671929
Zr       5.01880883       5.04687596       5.23951462       0.24085717       0.37326235      -1.64031446
54
Lattice="10.080000000000002 0.0 0.0 0.0 10.080000000000002 0.0 0.0 0.0 10.080000000000002" Properties=species:S:1:pos:R:3:forces:R:3 group=TiZrNb2_rattle10_b9 composition=TiZrNb2 energy=-487.1389465332031 pbc="T T T"
Ti      -0.04586988      -0.05289812       0.05659621       0.05484175       0.00045518      -0.24443497
Zr       1.74813120       1.59267226       1.81341816      -0.41639900      -0.39989775      -0.26137424
Nb       0.06438753      -0.06351845       3.49715510      -0.50229150       0.58985615       0.03118727
Ti       1.72636467       1.60246527       5.08317563       0.02093417       0.18427444       0.05542877
Ti      -0.00768411      -0.12969333       6.74525259      -0.40288672       0.47489682       0.33181506
Ti       1.69571329       1.68767816       8.50376911       0.46674782      -0.89482319      -0.41366100
Zr      -0.10998665       3.21197865      -0.00012703       0.51068217       0.20973860       0.26109082
Nb       1.68119769       4.94400601       1.67633521       0.28041250       0.53460437       0.31998575
Ti       0.08846314       3.38657479       3.23733156      -0.01542902      -0.49095288       1.08197236
Nb       1.67537698       5.13551315       5.12486361       0.28637415      -0.60728091      -0.06847939
Zr      -0.04727534       3.15130774       6.98497486       0.44937196       0.56223214      -1.44550371
Zr       1.65940988       5.11021144       8.44059723       0.30777562       0.05709037      -0.23637816
Nb      -0.11379050       6.79699620       0.07948410       0.71181631      -0.57900685      -0.06998153
Zr       1.63690348       8.30771106       1.62810241       0.82159233       0.17830144       0.01008528
Zr       0.10680570       6.58704862       3.39411042      -0.16345859       0.03991964       0.76632339
Zr       1.55778088       8.44587775       5.22977143       0.56683087      -0.35736269      -0.56548119
Nb      -0.01335382       6.75452724       6.93688037      -0.39618048      -0.51509261      -1.05008006
Nb       1.60155876       8.30521665       8.32536131       0.50174648       0.70048153       0.87006176
Nb       3.34073454      -0.01594525       0.02784897       0.02801733       0.12254132      -0.68644696
Ti       4.99624645       1.68544357       1.71881356       0.14048007      -0.23288584      -0.04148219
Nb       3.38070017       0.03933003       3.51669874       0.45352474      -0.11951724      -0.15471250
Nb       5.15502110       1.86391346       5.09129121      -0.73696101      -0.81512511      -0.35791549
Nb       3.55143899      -0.20092400       6.66645302      -0.65092206       1.37574840       0.61910683
Nb       4.97053077       1.82337044       8.36138393      -0.51365626      -0.72953409       0.41898325
Zr       3.25525178       3.47984346      -0.03670564       0.64735532      -0.54532844      -0.28095227
Zr       5.11950525       4.79675812       1.80569524      -0.05306855       1.03739667      -0.42539316
Nb       3.28582441       3.26932665       3.22748341       0.12498230       0.30078021       1.16888714
Nb       4.95730993       5.14734704       4.88984201       0.17596158      -0.11031891       0.55734092
Ti       3.37904610       3.32474814       6.57043458      -0.09248716       0.17226678       0.10154582
Ti       5.16425370       4.99545501       8.27391883      -0.16711941       0.40184310       0.37557703
Ti       3.42685581       6.55450555       0.08346321       0.20822223       0.61750126      -0.23602048
Nb       5.00407144       8.61849955       1.45754856       0.00209378      -0.68228263       0.95263749
Ti       3.42223094       6.83894712       3.50168318       0.08709624      -0.18570353      -0.34481320
Nb       5.01282862       8.42501804       5.12940951       0.71573168      -0.19727570      -0.84324092
Nb       3.38667765       6.77467554       6.84678264       0.20801491      -0.66393089      -0.36272955
Nb       5.00752635       8.33553206       8.26787890       0.37678918       0.08216478       0.96629173
Nb       6.55621043       0.15344064       0.02252529       0.21419123      -0.40456480      -0.20605120
Nb       8.31839877       1.76273271       1.61501926       0.15821752      -0.80699146       0.77381992
Nb       6.78402856       0.15492465       3.30843369      -0.32151818      -0.33771628       0.37243000
Ti       8.42241358       1.68044430       5.06004642       0.13336414      -0.27924973      -0.43742815
Nb       6.69360014       0.05820491       6.75695648       0.01576939      -0.67680305      -0.24200788
Zr       8.29723314       1.61250492       8.41728226       0.32377356      -1.15843427       0.41614544
Ti       6.84484184       3.29979956       0.06741289      -0.71220404       0.22293310      -0.23600242
Zr       8.50704010       4.95189281       1.80876119      -0.74540937       0.12594920      -0.33409980
Nb       6.65269598       3.25645480       3.44371170       0.49582496       0.13003953       0.22601148
Ti       8.31922018       4.99168453       5.06843961       0.12420011       0.14943726       0.11447665
Zr       6.74134362       3.18596428       6.89269975       0.04093730       1.44146609      -0.94811976
Nb       8.51444735       5.09494134       8.52115604      -0.86325759       0.04891282      -0.06351274
Ti       6.78507463       6.94287598       0.04371236      -0.64416903      -0.68458891      -0.11724263
Zr       8.48805701       8.31320645       1.82431877      -0.61516678       1.23926950      -0.36538386
Nb       6.81449116       6.75286442       3.22287435      -0.85953814      -0.02157763       0.95616281
Nb       8.27563825       8.41348096       5.09649615       0.00935464       0.03976608       0.19186600
Nb       6.78062577       6.69818652       6.78061478      -0.17726061      -0.17747574      -0.38465503
Nb       8.45232746       8.13505439       8.53429089      -0.61364460       1.63385427      -0.51564884
54
Lattice="10.080000000000002 0.0 0.0 0.0 10.080000000000002 0.0 0.0 0.0 10.080000000000002" Properties=species:S:1:pos:R:3:forces:R:3 group=TiZrNb2_rattle10_b9 composition=TiZrNb2 energy=-487.4482421875 pbc="T T T"
Ti      -0.09920687       0.02286673      -0.02639923       0.31294644       0.08273071      -0.27402338
Zr       1.72289251       1.69253284       1.56580299      -0.15715340      -0.10064685       0.28418556
Ti      -0.02996856      -0.12227168       3.28052920       0.20475695       0.39318842       0.16417536
Nb       1.80746638       1.67708030       4.93842277      -0.44323498      -0.59421098      -0.05744870
Nb       0.11411510      -0.05556236       6.81394651      -0.45922112       0.04390020      -0.27127910
Nb       1.95491912       1.60401457       8.24998482      -0.58024603      -0.66770291       0.86405528
Zr       0.09924878       3.34322641      -0.02732214      -0.09232360      -0.01382121      -0.29258543
Nb       1.71957422       5.16891075       1.65531159       0.29396254      -0.87456781      -0.09199761
Ti       0.03678761       3.30848378       3.40143226      -0.14534724       0.08457222      -0.33646774
Zr       1.54764682       5.09919184       5.15672780       0.05262632      -0.36819085      -0.68709838
Zr       0.08444103       3.25734839       6.69753203      -0.52635455      -0.27051741       0.14550695
Ti       1.66247834       4.96640961       8.18200733       0.04664239       0.29500178       1.21337426
Ti       0.09372133       6.66818980      -0.01698643      -0.54745197      -0.33309072      -0.05281620
Nb       1.69223174       8.24772522       1.63217462       0.17934637       0.96313345      -0.27385250
Zr       0.16218515       6.76363839       3.25677837      -1.51864719      -0.25586075      -0.07081431
Ti       1.49164101       8.36472527       4.95599532       0.42299494       0.99080598       0.30133727
Ti       0.00784645       6.78085947       6.78106542      -0.99767554      -0.04195857      -0.07131964
Zr       1.66707096       8.28744265       8.37449481       0.10541910       0.49423045       0.69180202
Ti       3.29267135      -0.12911216       0.10254164       0.61605823      -0.10968624      -0.43614182
Zr       5.16952147       1.68713518       1.79009237      -1.13563931       0.08107552      -0.86011755
Nb       3.30960057       0.16191952       3.30057819      -0.03666045      -1.01082242       0.56428242
Nb       5.03337138       1.79643856       5.21785753      -0.11955167      -0.20774120      -0.47988462
Nb       3.41794890      -0.10863127       6.69530782       0.11360358       0.11143230      -0.45561707
Ti       5.24360614       1.73685642       8.37514518      -0.71147847      -0.89924216       0.00209055
Ti       3.48560496       3.27723670      -0.04780876      -0.22517644       0.49546891       0.16625249
Nb       5.07278843       5.21853049       1.76079218      -0.05412510      -0.70575380       0.23340943
Nb       3.38004400       3.43346053       3.41966678       0.04954388       0.22191676      -0.21863857
Ti       4.93636452       5.15262782       4.95363668       0.67503101      -0.33992055       0.04883841
Zr       3.36248123       3.25820080       6.77156087       0.65343261       0.50503695      -0.19564509
Zr       5.02416164       5.27851410       8.44300852      -0.59961247      -0.61859822      -0.44460374
Nb       3.42163547       6.62004385       0.15301202      -0.48060364       0.27357638      -0.50986081
Nb       4.96218132       8.20706113       1.66561635       0.18088837       0.67557192      -0.21501657
Nb       3.24377151       6.81633833       3.52619308       0.63648379       0.08322303      -0.49684286
Ti       5.26251783       8.28087076       4.87879580      -0.92470181       0.22197464       0.72414726
Zr       3.20258704       6.79708679       6.64716993       0.77898151       0.18543555      -0.09544706
Nb       5.16573119       8.39640344       8.21875634      -0.18874511       0.41371262       0.80645037
Nb       6.77016572       0.08991336       0.04124120      -0.29464903      -0.86460173      -0.45988888
Nb       8.36543325       1.54417534       1.66993935       0.58769214       0.31735063       0.09091321
Zr       6.56129528       0.03207015       3.40373239       0.56734705      -0.70661938      -0.22186080
Zr       8.29851100       1.72078913       5.06727669       0.60149533      -0.21995738      -0.08154178
Nb       6.58335863      -0.01657364       6.56909458       0.52265203      -0.31824869       0.74209625
Nb       8.24868548       1.58408231       8.35931158       0.59489644      -0.44882831       0.00359149
Zr       6.72054757       3.42881718      -0.14527027      -0.00491285      -0.20912659       1.08058810
Nb       8.47189847       4.83712858       1.63728173      -0.21211553       0.57612121       0.30515897
Nb       6.69237360       3.21655288       3.32130375       0.31000599       1.48817492       0.50907797
Nb       8.39241578       5.08583420       4.95562070      -0.30630940       0.01304290       0.06971343
Nb       6.73358492       3.42449080       6.87641654      -0.39824426      -0.03170002      -1.28346896
Nb       8.31358396       4.84517403       8.29136416       1.09591556       1.19926059       0.18529804
Nb       6.68714901       6.63313935      -0.10739121       0.93781483       0.89796323       0.94496524
Ti       8.50043589       8.53825497       1.53098872      -0.50000626      -0.63673854       0.18699020
Nb       6.68207422       6.77332999       3.38761583       0.81681615      -0.51958311      -0.52696955
Nb       8.43075404       8.44073632       4.99939456       0.11972876      -0.18717124       0.35885531
Nb       6.79446458       6.67008931       6.76990924       0.30894405       0.36557505      -0.68995720
Ti       8.37831473       8.36298904       8.56993836      -0.12583818       0.08143234      -0.53594959
54
Lattice="10.080000000000002 0.0 0.0 0.0 10.080000000000002 0.0 0.0 0.0 10.080000000000002" Properties=species:S:1:pos:R:3:forces:R:3 group=TiZrNb2_rattle10_b9 composition=TiZrNb2 energy=-488.9256286621094 pbc="T T T"
Zr      -0.03586068       0.03703242       0.00813664      -0.11782120      -0.05226709      -0.31203243
Nb       1.68873394       1.79141101       1.58836189      -0.17313199       0.02667663       0.26457497
Ti      -0.16644605      -0.00665931       3.43176740       0.36577553      -0.13070102      -0.53842908
Zr       1.50231131       1.61241605       4.96799330       0.46101537       0.53037518       0.28313336
Ti       0.05347870      -0.02670286       6.72718262      -0.02735913       0.00241217       0.58831239
Ti       1.72096590       1.84213213       8.38930312      -0.53175312      -0.57435220      -0.12515160
Nb       0.06923487       3.37475873      -0.15485885      -0.17396989      -0.20584266       0.39293808
Nb       1.64819372       5.00801476       1.55831186       0.05588927       0.02333201       0.10959753
Nb      -0.10051812       3.16801794       3.30464428       0.31479001       0.65925080       0.09404051
Nb       1.64156475       5.04486722       5.02568394      -0.37212679      -0.53810835      -0.01899540
Nb      -0.11515469       3.43198760       6.76566557       0.25408730      -0.17472857      -0.23746267
Nb       1.66272533       5.11895360       8.40500089      -0.08357888      -0.07331634       0.24001510
Ti       0.01611154       6.72992842      -0.17240234      -0.21379036      -0.07634067       0.29700816
Zr       1.62243959       8.26948316       1.74395829       0.04703078       0.16808794      -0.30541861
Ti       0.10132756       6.68017496       3.34276866      -0.53937936      -0.33005700       0.26295125
Ti       1.60359979       8.34649015       5.19492943      -0.26925752       0.18527363      -0.15223870
Nb       0.04807105       6.58489264       6.71227812      -0.17143498       0.28819591       0.18293807
Ti       1.73586581       8.34139342       8.46013545      -0.45277137       0.12382812      -0.43157977
Zr       3.31957664      -0.01811264      -0.08203224       0.00388360       0.13452773      -0.08631605
Nb       4.90173435       1.60946885       1.53105866       0.46088123       0.68905139       0.40285903
Zr       3.29818199       0.02579504       3.38152271       0.11763033      -0.20018488      -0.27651328
Zr       5.10633096       1.71427223       5.14145881      -0.17441863       0.41960120      -0.40324739
Nb       3.34215055      -0.06952743       6.54604309      -0.24511528       0.15352714       0.73330134
Ti       5.10198341       1.68808441       8.39157309       0.16462819      -0.06545488       0.05012166
Ti       3.26441557       3.31332097      -0.00773111       0.37549525       0.30732983       0.26277658
Nb       4.92530973       5.11166790       1.73668835       0.23430806      -0.39605072      -0.27497897
Ti       3.28407113       3.52330057       3.29967966       0.12022797      -0.23301919       0.00585619
Nb       5.11979879       5.04508511       5.13274458      -0.03631642      -0.23901784      -0.69209695
Zr       3.37817713       3.38229072       6.96655211      -0.11469301       0.02492875      -0.71595240
Zr       5.13752786       5.16938682       8.48236616       0.26948035      -0.62279952       0.69377923
Ti       3.43186436       6.76144325      -0.15507422      -0.06452668       0.01039786       0.82497573
Nb       5.31187459       8.43847059       1.56408724      -1.02889621      -0.35241073       0.27719519
Zr       3.25189294       6.74998036       3.60934297       0.58457905      -0.08396602      -0.84313393
Nb       5.05539496       8.33735699       5.10812652       0.19899540       0.01372363      -0.36829817
Zr       3.39764675       6.75072005       6.77705859      -0.34515142       0.00001416      -0.03659569
Nb       4.93086794       8.51183119       8.36200925       0.56554967      -0.18280824       0.23147349
Nb       6.66961263      -0.03605438      -0.01954584       0.46594337       0.31340137      -0.08057007
Ti       8.49758701       1.65230735       1.70256126      -0.56219828      -0.16480331      -0.14529169
Nb       6.55425139       0.01721779       3.38869296       0.49183851       0.11085823      -0.51726657
Nb       8.53456341       1.58450210       4.98396161      -0.57103801       0.56251174       0.13361937
Zr       6.79507948      -0.11769076       6.64538502      -0.35584551       0.58704841       0.64751577
Nb       8.32567803       1.69786884       8.36240997       0.21670949      -0.06285441      -0.11205081
Nb       6.76365663       3.18840056      -0.04345905      -0.16371976       0.26468831       0.13066150
Zr       8.36480600       4.83852299       1.77237460       0.16081518       0.54658753      -0.26970279
Ti       6.70284825       3.24457423       3.31901678      -0.20319831       0.08169267       0.02946651
Nb       8.34134923       5.13941813       5.04721815       0.30301115      -0.25043476      -0.42577118
Nb       6.88820779       3.52387857       6.57156992      -0.08281121      -0.55275369       0.55522197
Ti       8.53768594       4.93697519       8.46189505      -0.44679362       0.27799961      -0.08048175
Nb       6.95623423       6.80610310       0.09665299      -0.28904730      -0.39139462      -0.35706469
Nb       8.43660740       8.39804740       1.74443831       0.07950982      -0.02501471      -0.04962450
Nb       6.62553370       6.75180000       3.26341584       0.15831754      -0.21025155       0.48826748
Zr       8.40196219       8.44443998       5.08457892       0.28721482      -0.77416211      -0.49318421
Nb       6.69981884       6.61247049       6.84992837       0.47595322       0.34763813      -0.36031979
Nb       8.30079680       8.29406061       8.29945206       0.57658416       0.11013505       0.52716827
16
Lattice="6.720000000000001 0.0 0.0 0.0 6.720000000000001 0.0 0.0 0.0 6.720000000000001" Properties=species:S:1:pos:R:3:forces:R:3 group=TiZrNb2_rattle18_b2 composition=TiZrNb2 energy=-140.13494873046875 pbc="T T T"
Nb      -0.11064946       0.41625184      -0.17327832      -0.04263159      -1.85990477       0.13400921
Zr       1.66450722       1.89653670       1.45034210       0.51158053      -3.44706678       0.71005607
Zr       0.17625422      -0.29812982       3.30999609       0.36014336       2.82902932       1.80200231
Nb       1.76561599       1.89628950       5.06483091      -1.92536259      -0.46213046       0.61217028
Ti      -0.11848799       3.18483065       0.14259517      -0.80713499       1.85491252      -0.96011722
Nb       1.77833412       5.17997112       1.69409419       1.55923223       0.63261777      -2.15115857
Nb       0.20078399       3.51155303       2.76525148      -0.18943405      -0.80864078       4.25944281
Ti       1.50217534       4.83789457       5.09029209       0.51965064       0.43784335       1.09492505
Nb       3.51622824       0.32406172      -0.25387977      -0.10864216      -1.21319222       1.21344590
Nb       5.29420957       1.60190726       2.12673762      -0.46507967       0.30212158      -1.92792225
Zr       3.41033487       0.44786938       3.36702600      -0.42097020      -2.85399437       0.35066026
Ti       4.96685650       2.16754065       5.14720500       1.32589877      -0.61091304      -0.44133663
Ti       3.33737567       3.26420171       0.36660826       1.88342762       1.89274454      -1.24818301
Nb       5.17771552       4.99463584       2.09377992      -3.18175673       0.86132467      -2.91544843
Zr       3.24032575       3.20912783       3.48456347       0.79712498       2.67036176      -0.98152101
Nb       4.98358695       5.07251171       5.16029900       0.18395364      -0.22511399       0.44897529
16
Lattice="6.720000000000001 0.0 0.0 0.0 6.720000000000001 0.0 0.0 0.0 6.720000000000001" Properties=species:S:1:pos:R:3:forces:R:3 group=TiZrNb2_rattle18_b2 composition=TiZrNb2 energy=-141.6468048095703 pbc="T T T"
Nb      -0.13179209      -0.32001143       0.10327497       0.60566157       3.24618554      -1.11220384
Zr       1.35806965       1.65540844       1.69309196       1.23939300      -0.02638644      -0.67418104
Nb      -0.07512593       0.01384955       3.18478114      -0.15759867      -0.07346344       1.53358269
Zr       1.71922537       1.45000131       5.05480408      -0.50508261       0.83946425       0.08631672
Nb      -0.02661153       3.45121811       0.02494005      -1.50725853      -3.07464051       0.69405133
Nb       1.57133651       4.85449473       1.52879375       1.53149235       0.88364547       1.18183160
Zr       0.04079398       3.54180623       3.53646438      -1.16210186      -1.25451803      -1.02162850
Nb       1.31568188       4.75694969       5.34926314       3.89493394       2.17341232      -1.78436303
Ti       3.11916501      -0.03590885      -0.19574987       1.13516176      -0.62479514       1.04683185
Nb       4.80651765       1.75543597       1.50844501       0.22999752      -1.19542563       0.65195554
Nb       3.21370903      -0.12808462       3.25521896       0.29022133      -0.28753108       0.35192320
Ti       5.14836007       1.68089750       4.94229103      -0.67932475      -0.35403255       0.33307791
Ti       3.75649549       3.70052241       0.30445644      -2.81967878      -1.68042541      -2.32958531
Zr       5.18136677       5.04071224       1.68455748      -1.37816191       0.84476107       2.57924390
Nb       3.25679127       3.28935042       3.36178086       0.56633449       0.39770895       0.54226971
Ti       5.13605753       5.12287396       5.30535934      -1.28398860       0.18604067      -2.07912278
16
Lattice="6.720000000000001 0.0 0.0 0.0 6.720000000000001 0.0 0.0 0.0 6.720000000000001" Properties=species:S:1:pos:R:3:forces:R:3 group=TiZrNb2_rattle18_b2 composition=TiZrNb2 energy=-142.11277770996094 pbc="T T T"
Zr       0.18076329       0.13074751      -0.07053238      -1.53623044      -0.18835481       0.50395036
Zr       1.51396301       1.77127977       1.75960099       0.68400705      -0.84984881       0.09812561
Nb       0.16157259      -0.12146508       3.49568179      -2.49717689       1.93231225      -2.40447402
Zr       1.85757329       1.68559052       4.91938777      -0.87719429       1.28586984       0.43141878
Nb       0.04731477       3.51921692       0.18447872      -0.14125369      -1.49547648      -2.36019540
Ti       1.64311762       4.88722814       1.50115132       0.08172166       2.48900938       1.38480806
Nb       0.05924875       3.64841945       3.39067357      -1.05668497      -2.01092172      -0.73192322
Zr       1.61615484       5.18862190       4.78372141       2.05990481      -1.53269434       2.53521585
Ti       3.38970098      -0.01671099      -0.39136679       0.84072936      -0.26993459       1.57022643
Ti       4.94705851       1.74634267       1.78395193       0.07689853      -0.22475854      -0.10255808
Nb       3.52097292       0.00556178       3.39758741       0.62271065      -0.10752894      -1.23023224
Nb       4.84768612       1.96309458       5.07135152       1.04759669      -0.13247952       0.01886716
Nb       3.12865968       3.55628306       0.23064226       0.91372323      -1.38956881      -2.38558769
Nb       5.02992902       4.67599303       1.36463776      -0.28231090       2.72269750       1.63889623
Nb       3.22292541       3.55172775       3.33134997       1.18179715      -0.46653491      -0.23631829
Ti       5.17546164       4.95802592       4.76827595      -1.11823702       0.23821230       1.26977992
16
Lattice="6.720000000000001 0.0 0.0 0.0 6.720000000000001 0.0 -0.00727557771049662 0.0 6.720000000000001" Properties=species:S:1:pos:R:3:forces:R:3 group=TiZrNb2_strain_shear_b0 composition=TiZrNb2 energy=-145.44558715820312 pbc="T T T"
Zr       0.01101410       0.00642350       0.02631680      -0.23372276      -0.29818234       0.11840250
Ti       1.66790711       1.72466181       1.69299375       0.22378607       0.14294288      -0.12619098
Zr       0.02030347      -0.00095902       3.35498969      -0.15135558      -0.24316122      -0.18344140
Zr       1.68412706       1.61574866       5.04266060       0.05638266       0.33932018       0.14925361
Nb      -0.01748379       3.33226100       0.02111622      -0.10306847       0.29942203       0.03379626
Ti       1.63284112       5.05666994       1.65495765       0.27508676      -0.28583574       0.02062404
Nb      -0.05188282       3.36888158       3.35284113       0.09110048       0.18104085      -0.08989442
Ti       1.66632996       5.03621736       5.04458657       0.02155086      -0.17362857       0.09988786
Nb       3.30762311      -0.04201022       0.05360058       0.26897210      -0.04092681       0.17335704
Nb       5.08213163       1.66488627       1.66239550      -0.33221841       0.18638489      -0.11180549
Nb       3.37166969       0.03908310       3.39512484       0.02701871      -0.35104248      -0.37822765
Nb       5.01610177       1.64191780       5.02359992      -0.00031230       0.17142624       0.26062906
Nb       3.36600458       3.38782927      -0.06594825       0.03155302       0.05348711       0.49057785
Ti       5.00233947       5.03349477       1.70434370      -0.07218567      -0.08233641      -0.19138606
Zr       3.38478917       3.36567998       3.41179924      -0.10872948       0.21736586      -0.45597667
Nb       5.00132248       5.05648349       5.04692346       0.00614153      -0.11627633       0.19039427
16
Lattice="6.720000000000001 0.0 0.0 -0.17138930614128411 6.720000000000001 0.0 0.0 0.0 6.720000000000001" Properties=species:S:1:pos:R:3:forces:R:3 group=TiZrNb2_strain_shear_b0 composition=TiZrNb2 energy=-145.3271942138672 pbc="T T T"
Zr       0.03713325       0.02673752       0.01280494      -0.22962578      -0.08600989       0.06502607
Zr       1.63223434       1.67275526       1.71098044      -0.00651941       0.22354212       0.23949519
Nb       0.03421949      -0.01611079       3.35608886      -0.02204999       0.10797505       0.02664053
Nb       1.61427121       1.63690574       5.07390299       0.04380763       0.28585824      -0.37732017
Ti      -0.09341147       3.39972255      -0.02432754       0.01653930      -0.09395097       0.09850962
Ti       1.55559162       5.03471827       1.69852138       0.03816159      -0.02771015       0.20698789
Ti      -0.08842571       3.40940694       3.39416410       0.04017243      -0.15861008      -0.01766531
Nb       1.51426219       5.03820926       5.07581293       0.08092687      -0.10250773      -0.33283699
Nb       3.32491223      -0.05115946       0.00066823       0.19464357       0.19762582       0.09510399
Nb       5.01602153       1.65629709       1.71423962       0.00846057       0.17075798       0.18748525
Nb       3.39991943       0.03824749       3.36588598      -0.16259493      -0.02499425      -0.02868852
Ti       5.02406804       1.70203069       5.04332580      -0.10246123      -0.01481722      -0.24929404
Zr       3.31808991       3.37382826      -0.01208516      -0.04530025      -0.10519350       0.04487899
Nb       4.94781182       5.01809263       1.73678648      -0.01550717      -0.00743779       0.05943984
Nb       3.22525228       3.40054931       3.36336784       0.09898749      -0.12151542       0.07636391
Zr       4.90089344       5.13764183       5.00532359       0.06235967      -0.24301217      -0.09412624
16
Lattice="6.720000000000001 0.0 0.0 0.25766066955623335 6.720000000000001 0.0 0.0 0.0 6.720000000000001" Properties=species:S:1:pos:R:3:forces:R:3 group=TiZrNb2_strain_shear_b0 composition=TiZrNb2 energy=-145.26649475097656 pbc="T T T"
Nb       0.03313299      -0.02306967       0.02415570      -0.23912744       0.28843316       0.16945574
Ti       1.74604492       1.65418603       1.72157088      -0.16068619      -0.03337684       0.35296786
Ti      -0.02061188      -0.00943827       3.36147908      -0.08111755       0.26447129      -0.11401878
Nb       1.78930480       1.67031882       5.06284219      -0.40641972      -0.02662005      -0.59643477
Zr       0.12253158       3.34070453       0.01022204      -0.10698861      -0.24452326       0.20251246
Nb       1.89206382       5.01466508       1.71803101      -0.20755750       0.12776484       0.35994041
Ti       0.15173392       3.38851366       3.39385969      -0.20616196      -0.30894738      -0.18089429
Zr       1.85258694       5.06557156       5.02783950      -0.06522900      -0.01154676      -0.39490384
Zr       3.33823032      -0.00397773       0.00373233       0.23035049       0.00889951       0.20152697
Nb       5.06901652       1.64473913       1.68561566       0.29955971       0.04597043       0.48387328
Nb       3.38885928      -0.00597329       3.35578493       0.03757423       0.15147609      -0.13153671
Nb       5.03414029       1.66168674       5.03537279       0.47870064      -0.03481558      -0.45475438
Zr       3.47778964       3.33831606       0.00975901       0.13000834      -0.03800511       0.20264366
Nb       5.26452356       5.06301412       1.70024815       0.11432268      -0.06715662       0.38005498
Ti       3.47980989       3.39750731       3.36932335       0.19528824      -0.22971952      -0.15152436
Nb       5.27873300       5.02730925       5.01316239      -0.01251657       0.10769575      -0.32890821
16
Lattice="6.36783533661135 0.0 0.0 0.0 6.36783533661135 0.0 0.0 0.0 6.36783533661135" Properties=species:S:1:pos:R:3:forces:R:3 group=TiZrNb2_strain_vol_b0 composition=TiZrNb2 energy=-141.8082733154297 pbc="T T T"
Nb       0.00969820      -0.02868601       0.04010931      -0.47945389       0.81559914      -0.21400148
Nb       1.56547817       1.57766189       1.63230924       0.19448082      -0.31115276       0.04543304
Nb       0.02609486      -0.00351232       3.18975618      -0.46862745       0.40874138      -0.01869395
Ti       1.58896238       1.59077410       4.78532317      -0.26579350      -0.10091531      -0.14676732
Nb      -0.00713790       3.20107545       0.02218215      -0.37805080      -0.76826751      -0.07282023
Zr       1.55745467       4.76610118       1.58072306       0.30879176       0.30263942       0.50517786
Nb      -0.03993457       3.17465168       3.14267834       0.02887261      -0.39958650       0.02650458
Zr       1.64675494       4.78310633       4.77839821      -0.59374642      -0.10466651      -0.38369194
Nb       3.19236909      -0.02351745      -0.04180409       0.33820283       0.78128457       0.56817877
Ti       4.76608316       1.57980244       1.60038710       0.04759216      -0.29640770      -0.00305670
Ti       3.15762749      -0.02356399       3.21934287       0.39471173       0.58144546      -0.48455620
Nb       4.75065467       1.60926694       4.72513874       0.16350991      -0.44115135       0.14509465
Zr       3.13438602       3.20333218       0.03390370       0.53723991      -0.75609702       0.02684355
Ti       4.78202456       4.78442650       1.56393660      -0.01164606       0.25326994       0.32248521
Nb       3.20171000       3.17885324       3.15146515       0.04507703      -0.38722652      -0.14671656
Zr       4.79523728       4.74111028       4.76281123       0.13884056       0.42249218      -0.16941297
16
Lattice="6.730995728694259 0.0 0.0 0.0 6.730995728694259 0.0 0.0 0.0 6.730995728694259" Properties=species:S:1:pos:R:3:forces:R:3 group=TiZrNb2_strain_vol_b0 composition=TiZrNb2 energy=-145.2787628173828 pbc="T T T"
Zr       0.00617720      -0.01702615       0.03614046      -0.37130731      -0.11470731      -0.39649183
Zr       1.66332885       1.67262892       1.66403646       0.12017347      -0.00936243       0.06251079
Nb      -0.00372771      -0.02085897       3.36324481      -0.27635202       0.13100137       0.33671758
Ti       1.65996036       1.68337723       5.07502081       0.06122915      -0.00977726      -0.11640507
Nb       0.02343583       3.31610250      -0.02995524      -0.37464219       0.21760079      -0.27009124
Zr       1.71546957       5.00899398       1.67734448       0.03669846       0.06238940      -0.08592340
Nb      -0.02854856       3.40990301       3.33848740      -0.13284449      -0.17190889       0.38525921
Nb       1.64000655       5.03535623       5.01467908       0.25738889       0.01436961       0.20418991
Ti       3.33919221      -0.00596194       0.05463661       0.38654205      -0.02294318      -0.42911106
Nb       5.07436411       1.70481566       1.67760635      -0.12322494      -0.11644051      -0.04107811
Nb       3.34331492       0.02397722       3.35081951       0.32269371      -0.06778435       0.38450095
Nb       5.07071246       1.69694679       5.02850081      -0.13606103      -0.07684063       0.16175203
Ti       3.39125688       3.33270022       0.08912832       0.29227456       0.07088067      -0.59688026
Ti       5.06886486       5.02687774       1.74920517      -0.03942148       0.08137753      -0.19854702
Zr       3.38681464       3.33494502       3.36658085       0.15207238       0.04610531       0.42917982
Nb       5.04250230       5.07684504       5.04303158      -0.17521942      -0.03395993       0.17041731
16
Lattice="6.421334657235316 0.0 0.0 0.0 6.421334657235316 0.0 0.0 0.0 6.421334657235316" Properties=species:S:1:pos:R:3:forces:R:3 group=TiZrNb2_strain_vol_b0 composition=TiZrNb2 energy=-142.81588745117188 pbc="T T T"
Nb       0.01474885       0.03283389       0.00656999       0.05292672       0.17455761      -0.16196829
Nb       1.59172018       1.60708198       1.61601379       0.10685363       0.20505935       0.43660834
Nb      -0.02515814      -0.01010717       3.20217758       0.15488094       0.20375207       0.13853225
Nb       1.58079827       1.60229019       4.76023021       0.20920447       0.15613467      -0.24223761
Nb       0.01362239       3.19608807      -0.00245797      -0.08389264      -0.35478389       0.06063239
Nb       1.62126841       4.78793337       1.59084680      -0.23233521      -0.05823112       0.51093352
Ti      -0.00120373       3.22692012       3.20329694       0.01356310      -0.33171791      -0.18322688
Zr       1.61879626       4.77462582       4.80662008      -0.03404069       0.09645176      -0.25917792
Zr       3.20392132       0.02808085       0.03735622      -0.06037164       0.47126395      -0.31408495
Nb       4.88753036       1.56774609       1.64936656      -0.37660301       0.57160980       0.31175202
Ti       3.20609516      -0.00564214       3.19345397      -0.10044193       0.41545877       0.13383122
Ti       4.86442074       1.62239852       4.81246819      -0.15028483       0.10967717      -0.13628875
Nb       3.19564156       3.18594867       0.03570950       0.18658525      -0.52960682      -0.21093380
Zr       4.78189360       4.83531950       1.57703338       0.31625360      -0.45437953       0.55639148
Ti       3.19808966       3.22092799       3.19177416       0.09479275      -0.51503253      -0.03760347
Zr       4.82814273       4.81441121       4.86623564      -0.09709150      -0.16021293      -0.60315931
16
Lattice="6.753333333333334 0.0 0.0 0.0 6.753333333333334 0.0 0.0 0.0 6.753333333333334" Properties=species:S:1:pos:R:3:forces:R:3 group=TiZrNb_md1400_b1 composition=TiZrNb energy=-139.39122009277344 pbc="T T T"
Ti       0.00000000       0.00000000       0.00000000      -0.21014570      -0.23303711      -0.00586932
Zr       1.68833333       1.68833333       1.68833333      -0.47236478       0.06539923       0.06538838
Ti       0.00000000       0.00000000       3.37666667      -0.20903185      -0.23521525       0.00633418
Zr       1.68833333       1.68833333       5.06500000      -0.49750674       0.07178959      -0.07179557
Ti       0.00000000       3.37666667       0.00000000      -0.20903198       0.23522528      -0.00632291
Nb       1.68833333       5.06500000       1.68833333      -0.46665573      -0.09370736       0.09370243
Nb       0.00000000       3.37666667       3.37666667      -0.34536982       0.30517581      -0.02415418
Nb       1.68833333       5.06500000       5.06500000      -0.47077280      -0.09436914      -0.09437752
Zr       3.37666667       0.00000000       0.00000000       0.35235313      -0.28368610       0.05318862
Ti       5.06500000       1.68833333       1.68833333       0.32735088       0.11430688       0.11431907
Zr       3.37666667       0.00000000       3.37666667       0.35937184      -0.29741138      -0.05143727
Nb       5.06500000       1.68833333       5.06500000       0.46994430       0.09727775      -0.09728997
Zr       3.37666667       3.37666667       0.00000000       0.35937113       0.29741633       0.05144109
Ti       5.06500000       5.06500000       1.68833333       0.32579720      -0.12286271       0.12284670
Nb       3.37666667       3.37666667       3.37666667       0.34989712       0.29728669      -0.03239518
Ti       5.06500000       5.06500000       5.06500000       0.33679405      -0.12358858      -0.12357855
16
Lattice="6.753333333333334 0.0 0.0 0.0 6.753333333333334 0.0 0.0 0.0 6.753333333333334" Properties=species:S:1:pos:R:3:forces:R:3 group=TiZrNb_md1400_b1 composition=TiZrNb energy=-138.03829956054688 pbc="T T T"
Ti       0.31650047      -0.06898076       0.05538322      -1.32327545      -0.75186783      -0.59731770
Zr       1.49091752       1.59275846       1.62462755       0.36963126       0.82174891       0.71394485
Ti       0.26617286      -0.07250037       3.56233444      -1.57419991       0.14031413      -0.50313669
Zr       1.56129432       1.67785961       5.21999564       0.10028428       0.44078225      -0.41362175
Ti       0.10261462       3.51589839       0.17407238      -0.27869621       0.20928010      -0.64383298
Nb       1.71975722       5.27940058       1.73161045      -0.16696209      -1.24825501      -0.03635454
Nb      -0.21690383       3.26204768       3.20834847       0.43177736       0.73328429       0.74767089
Nb       1.86071807       5.19443477       4.72513619      -0.47089803      -1.01979864       1.39151824
Zr       3.66204856       0.04410198       0.22369190      -0.25538635      -0.19080392      -1.20795774
Ti       5.02997022       1.73508558       1.80110121       0.51289320       0.11927817      -0.27691659
Zr       3.50616351      -0.01498711       3.31886068       0.83298784      -0.05037545       0.53955096
Nb       5.09353140       1.74265741       5.19242118       0.56255466      -0.04982617      -0.06665123
Zr       3.36887724       3.50823141      -0.04011099       0.13305789       0.10268405       0.38159782
Ti       5.19403004       5.06613952       1.54662646       0.26711354      -0.17479286       0.77679664
Nb       3.21903385       3.08819487       3.52459049       0.58153611       0.94588649      -0.67360061
Ti       5.17142082       5.00439255       5.05792053       0.27758181      -0.02753844      -0.13168941
16
Lattice="6.753333333333334 0.0 0.0 0.0 6.753333333333334 0.0 0.0 0.0 6.753333333333334" Properties=species:S:1:pos:R:3:forces:R:3 group=TiZrNb_md1400_b1 composition=TiZrNb energy=-136.967041015625 pbc="T T T"
Ti       0.27475107      -0.24889306      -0.05745349      -0.40640861       0.00425736      -0.31058586
Zr       1.42057543       1.65964631       1.60701474       0.72015196      -0.09307230       0.65990078
Ti       0.14022534      -0.05452097       3.56710491      -0.93746966       0.44661340      -0.52820802
Zr       1.51026906       1.76167601       5.35622898       0.20873702      -0.28569245      -0.83349335
Ti       0.15124022       3.66148220       0.19503018       0.06181243      -0.43610585      -1.00435615
Nb       1.73562264       5.27701602       1.80516357       0.08122116      -0.85498196      -0.04182193
Nb      -0.37741820       3.20966451       3.11563316       1.83150256       1.25529778       1.93763304
Nb       1.92144522       5.18180152       4.53708649      -0.68581307      -0.87902600       1.83996511
Zr       3.91558917       0.04572676       0.35261993      -1.53085542      -0.04729259      -1.93952835
Ti       5.06169271       1.78716022       1.88529879      -0.00092173      -0.18410513      -1.20225847
Zr       3.72618742      -0.03877187       3.34711771       0.08008876       0.02427223       0.77061146
Nb       5.16515134       1.76475231       5.27427260       0.32534239       0.01512676       0.03718656
Zr       3.33745608       3.64341356      -0.03760537       0.31989625      -0.15986495       0.47376132
Ti       5.36770269       5.04495437       1.52871059      -0.46128106       0.08518779       1.28867459
Nb       3.15356104       2.95468193       3.60159810       0.69676590       1.11122799      -0.95407635
Ti       5.34350295       4.91234401       5.03945840      -0.30276883      -0.00184151      -0.19340485
16
Lattice="6.753333333333334 0.0 0.0 0.0 6.753333333333334 0.0 0.0 0.0 6.753333333333334" Properties=species:S:1:pos:R:3:forces:R:3 group=TiZrNb_md600_b0 composition=TiZrNb energy=-139.53570556640625 pbc="T T T"
Nb       0.00000000       0.00000000       0.00000000      -0.18963946      -0.13062981      -0.13332543
Zr       1.68833333       1.68833333       1.68833333      -0.00304152       0.06929078      -0.24700956
Ti       0.00000000       0.00000000       3.37666667      -0.10528594      -0.10939851       0.10475971
Nb       1.68833333       1.68833333       5.06500000       0.00205592       0.05642746       0.27871698
Ti       0.00000000       3.37666667       0.00000000      -0.10040554       0.11616828      -0.11502760
Zr       1.68833333       5.06500000       1.68833333      -0.00534451      -0.07378959      -0.25089830
Zr       0.00000000       3.37666667       3.37666667      -0.18890491       0.09988333       0.12807812
Nb       1.68833333       5.06500000       5.06500000       0.00064282      -0.05112942       0.28788397
Nb       3.37666667       0.00000000       0.00000000       0.17970130      -0.12022067      -0.12775919
Ti       5.06500000       1.68833333       1.68833333      -0.00032824      -0.02045017      -0.24495435
Zr       3.37666667       0.00000000       3.37666667       0.20297730      -0.10546254       0.13238908
Zr       5.06500000       1.68833333       5.06500000       0.00159173       0.06507643       0.24669966
Ti       3.37666667       3.37666667       0.00000000       0.10331991       0.12155464      -0.12672606
Nb       5.06500000       5.06500000       1.68833333      -0.00017309      -0.04948822      -0.29102191
Ti       3.37666667       3.37666667       3.37666667       0.10208498       0.10582323       0.10256116
Ti       5.06500000       5.06500000       5.06500000       0.00074936       0.02634497       0.25563383
16
Lattice="6.753333333333334 0.0 0.0 0.0 6.753333333333334 0.0 0.0 0.0 6.753333333333334" Properties=species:S:1:pos:R:3:forces:R:3 group=TiZrNb_md600_b0 composition=TiZrNb energy=-139.30653381347656 pbc="T T T"
Nb       0.08641975      -0.04091637      -0.06173932      -0.36604193       0.05430635       0.09572979
Zr       1.82652061       1.65099486       1.68349981      -0.12144873       0.20696898      -0.25833699
Ti       0.17895276       0.01605282       3.37175570      -0.34460250      -0.27371579       0.09591483
Nb       1.71488404       1.67494240       5.09255906      -0.00344512       0.19623338       0.20190455
Ti       0.07217408       3.34436910       0.09967856      -0.28808779       0.03219981      -0.39624313
Zr       1.79271607       4.99803033       1.62957069      -0.29028091       0.03102241      -0.02794221
Zr      -0.01103301       3.28273705       3.34919660      -0.06398493       0.31325239       0.29328775
Nb       1.68941544       5.05465536       5.11132649       0.16636750      -0.16493799       0.04002300
Nb       3.38602415       0.07272243       0.02253746       0.36752221      -0.33413917      -0.28344044
Ti       5.17039905       1.60654521       1.77601810      -0.07947746       0.04623416      -0.56589693
Zr       3.45693765      -0.05223636       3.29502802       0.05472207      -0.15746471       0.44495189
Zr       4.95855490       1.66409762       5.05391030       0.42278618       0.12375683       0.32098174
Ti       3.52375202       3.46390778       0.01511660       0.01075683      -0.11584746      -0.22847921
Nb       5.04250355       5.02138472       1.65156893       0.42875314       0.05408757      -0.18497200
Ti       3.38356106       3.36504461       3.37303471       0.16387227       0.17506655       0.21809268
Ti       5.16314473       5.14732056       5.04568927      -0.05741074      -0.18702346       0.23442465
16
Lattice="6.753333333333334 0.0 0.0 0.0 6.753333333333334 0.0 0.0 0.0 6.753333333333334" Properties=species:S:1:pos:R:3:forces:R:3 group=TiZrNb_md600_b0 composition=TiZrNb energy=-139.14877319335938 pbc="T T T"
Nb       0.10880343      -0.06954442      -0.12619533      -0.23083128       0.13610718       0.41224727
Zr       1.96192955       1.67571756       1.65036986      -0.32641166       0.13648285      -0.11354932
Ti       0.27867993       0.03327571       3.41109337      -0.40202838      -0.34147722      -0.06086100
Nb       1.72286033       1.63698612       5.13613172       0.06595808       0.37204155      -0.04126126
Ti       0.06697550       3.33013671       0.10998729      -0.17029385      -0.04340603      -0.44315702
Zr       1.86480801       4.94294410       1.60297645      -0.50013798       0.23460203       0.12563838
Zr      -0.02985946       3.25906181       3.35833188       0.09611318       0.38211656       0.34973404
Nb       1.68457909       5.02684545       5.12693886       0.34486145      -0.22243056      -0.10905332
Nb       3.43920814       0.07932691       0.00275196       0.30241710      -0.51973069      -0.20163649
Ti       5.31088039       1.56484083       1.74814775      -0.30824205       0.00364381      -0.50466371
Zr       3.55320033      -0.08768243       3.24941586      -0.00969738      -0.19568047       0.52579182
Zr       4.91047751       1.64070374       5.07214234       0.68096077       0.20647839       0.21488705
Ti       3.60904000       3.51038079       0.01331238      -0.11639459      -0.34379455      -0.32695514
Nb       5.07786574       4.95977399       1.59814975       0.59577972       0.23029816       0.05914032
Ti       3.43563682       3.35634596       3.39146027       0.11870944       0.19307896       0.23971128
Ti       5.23098311       5.15700041       5.14062318      -0.14076239      -0.22833002      -0.12601286
16
Lattice="6.753333333333334 0.0 0.0 0.0 6.753333333333334 0.0 0.0 0.0 6.753333333333334" Properties=species:S:1:pos:R:3:forces:R:3 group=TiZrNb_rattle05_b0 composition=TiZrNb energy=-139.32879638671875 pbc="T T T"
Nb       0.03415985       0.04308765      -0.01463152       0.29115000      -0.05883255       0.12287812
Ti       1.67465000       1.71958023       1.70189622       0.11033066      -0.47642982      -0.03040166
Ti      -0.03902350      -0.00551497       3.45801092       0.26631159       0.00434407      -0.16479284
Ti       1.66896988       1.68373244       5.12315043       0.12798825      -0.29669514      -0.03665295
Zr       0.01694795       3.41885827       0.00378819       0.30472553      -0.15491661       0.05819595
Ti       1.65941737       5.06833231       1.59673227       0.22682466       0.43757784       0.17883493
Zr      -0.01583156       3.41809448       3.41129905       0.32586306      -0.10700329      -0.11321946
Ti       1.66216078       5.00082164       4.99942697       0.28901586       0.56498718       0.28375190
Nb       3.41166380       0.01476045       0.00164259      -0.53686517      -0.01549592       0.18888560
Ti       5.06992156       1.72805126       1.72700123      -0.00148113      -0.50563413      -0.11046974
Nb       3.38235408       0.04788554       3.45948786      -0.39451855      -0.16746604      -0.27328843
Zr       5.03925265       1.70642799       5.13056130       0.04558158      -0.34497523       0.01345177
Nb       3.37140557       3.33997790       0.02160934      -0.41535795       0.09282881      -0.00428736
Zr       5.03823933       5.03150309       1.67625537      -0.05358058       0.62131846       0.08685219
Zr       3.40998927       3.35324351       3.37356627      -0.50543630       0.09019481       0.01788943
Nb       5.03219217       5.09298825       5.17208431      -0.08055191       0.31619751      -0.21762744
16
Lattice="6.753333333333334 0.0 0.0 0.0 6.753333333333334 0.0 0.0 0.0 6.753333333333334" Properties=species:S:1:pos:R:3:forces:R:3 group=TiZrNb_rattle05_b0 composition=TiZrNb energy=-139.34388732910156 pbc="T T T"
Zr      -0.05884601       0.03517856      -0.00419259       0.14926860      -0.36873838       0.13360590
Zr       1.70455401       1.75641748       1.73281049       0.18115759      -0.11150397      -0.11836123
Ti      -0.01243074      -0.05358865       3.33323842       0.19173175      -0.06721485       0.05354396
Ti       1.65448391       1.73150520       5.10472649       0.21610901      -0.02572350      -0.03155401
Ti       0.13538550       3.40245272       0.06077718      -0.33437148       0.27242431      -0.20399767
Nb       1.73702304       4.97977685       1.66142273       0.04783428       0.20945090       0.02297178
Zr      -0.05967281       3.35299797       3.37931928       0.15302628       0.34329396       0.17993614
Nb       1.70671186       5.10697693       5.08919533       0.04299715      -0.12813641       0.01482262
Nb       3.30131290      -0.01388536       0.00495095       0.18169865      -0.15122806       0.08409258
Ti       5.17759912       1.74368359       1.68409033      -0.44585127       0.05032196      -0.15634796
Zr       3.46664359       0.05699016       3.33580883      -0.26750392      -0.20146155      -0.03568226
Zr       5.05267617       1.62665829       5.08894923      -0.03168248       0.39845842       0.21923482
Ti       3.41126148       3.40324925       0.01868926       0.04805757       0.20333940      -0.06563524
Ti       5.06152987       5.07228688       1.72736689      -0.12193251      -0.18088956      -0.32013193
Nb       3.38354706       3.44857188       3.46745699       0.02951134       0.06478810      -0.11575738
Nb       5.06183723       5.11154428       5.03167051      -0.04005042      -0.30718085       0.33925998
16
Lattice="6.753333333333334 0.0 0.0 0.0 6.753333333333334 0.0 0.0 0.0 6.753333333333334" Properties=species:S:1:pos:R:3:forces:R:3 group=TiZrNb_rattle05_b0 composition=TiZrNb energy=-139.22509765625 pbc="T T T"
Zr       0.06295727      -0.02815373      -0.08503345      -0.02525984      -0.14721420       0.36781844
Ti       1.60504247       1.74758661       1.62486645       0.00903200       0.08101531       0.35632747
Ti      -0.02611268       0.01737231       3.33136833       0.12456047      -0.16331668      -0.14302041
Nb       1.68102241       1.64684796       5.04826086      -0.37040192       0.37813222      -0.31481487
Nb       0.06697612       3.43132546       0.06142918      -0.05749217       0.04834402       0.01570150
Nb       1.68454826       5.05852248       1.72227699      -0.13764669      -0.16811563       0.26430291
Ti       0.06762894       3.34508849       3.41393492      -0.10079375       0.19055733      -0.21087441
Ti       1.70752786       5.01393154       5.04722231      -0.16698436      -0.10840838      -0.24246380
Zr       3.40549894       0.12400412      -0.05285232      -0.25931147      -0.61510706       0.40583527
Ti       4.95681735       1.71639947       1.65138540       0.59739298       0.14076853       0.34666014
Zr       3.36915744       0.03350411       3.43238472      -0.19968978      -0.27676660      -0.45563805
Zr       5.08213649       1.69176229       5.10790928       0.57510346       0.25090533      -0.42408201
Zr       3.43343578       3.37323513      -0.05920568      -0.34571648       0.42984375       0.36915946
Nb       5.04915709       5.05908780       1.69592585       0.28524271      -0.16237606       0.32558867
Nb       3.42823933       3.30603920       3.44109852      -0.30189785       0.35183072      -0.43806598
Ti       5.04037549       5.08296476       5.05217670       0.37386280      -0.23009284      -0.22243446
16
Lattice="6.753333333333334 0.0 0.0 0.0 6.753333333333334 0.0 0.0 0.0 6.753333333333334" Properties=species:S:1:pos:R:3:forces:R:3 group=TiZrNb_rattle10_b1 composition=TiZrNb energy=-138.7198028564453 pbc="T T T"
Ti      -0.15722673       0.18687352      -0.03285569       0.32530662      -0.65458316      -0.33221555
Zr       1.63355824       1.42328672       1.70487255       0.06769702       0.66802144       0.14416264
Nb      -0.01428678      -0.13334500       3.38226791      -0.14718798      -0.02212484       0.20130470
Nb       1.78258231       1.76855885       5.03620325      -0.37487110      -0.51210070      -0.21435553
Zr       0.19031814       3.47368430      -0.03350800      -1.52686465      -0.64878738      -0.32098815
Ti       1.52394279       4.97892247       1.49915770       0.64021438       0.69496280       0.99791133
Ti       0.01691229       3.42652616       3.26831714      -0.09319827      -0.19734165       0.40318280
Zr       1.77569598       5.03228348       5.06671311      -0.69292158       0.99887955      -0.24690706
Zr       3.49201941      -0.00500813      -0.04017205      -0.03611958      -0.15162322      -0.01233559
Zr       5.05875449       1.57209162       1.81964959      -0.09534049       0.68812943       0.03558412
Nb       3.29110416       0.00470064       3.31714491       0.36899808      -0.42144901       0.26606938
Ti       5.07140421       1.57983117       4.98005763      -0.04646190       0.60069275      -0.19149566
Nb       3.22775716       3.44545770       0.02347371       1.10635591      -0.28769362       0.35248962
Ti       5.09588086       5.03602006       1.75639077      -0.26194033      -0.08174422      -0.01037842
Nb       3.25402601       3.49268431       3.54180257       0.69910222      -0.49240941      -1.04910123
Ti       5.07133154       5.10468419       4.97381132       0.06723117      -0.18082863      -0.02292711
16
Lattice="6.753333333333334 0.0 0.0 0.0 6.753333333333334 0.0 0.0 0.0 6.753333333333334" Properties=species:S:1:pos:R:3:forces:R:3 group=TiZrNb_rattle10_b1 composition=TiZrNb energy=-137.88621520996094 pbc="T T T"
Zr       0.03088825       0.04481829       0.00722148      -0.91436201      -0.33157220       0.06924963
Nb       1.72570477       1.67236261       1.53874440       0.45164931       0.31161791       0.78714728
Zr       0.12737362       0.04177606       3.28782478      -1.23987341       0.84173286       0.00737593
Zr       1.58511512       1.70683720       5.15108671       0.24074575       1.01693320      -0.61485165
Nb      -0.02800381       3.36127907       0.21986833      -0.07712567       0.21990325      -0.87216222
Zr       1.81802504       4.93953983       1.91009512       0.51343411       0.73049998      -2.33899760
Ti       0.03881493       3.78085140       3.32253269      -0.88560259      -2.06325006       0.61987454
Zr       1.79396094       5.21414588       4.81261372      -0.18313456      -1.06559920       2.11332369
Nb       3.30610568       0.04692265      -0.07816601       0.94296384      -0.17854041       0.44728366
Ti       5.07200088       1.86439804       1.72680535      -0.20903435      -0.45464978       0.28819999
Ti       3.33700358      -0.03964972       3.45785573       1.21921682       0.95322955      -0.76634073
Ti       4.82748789       1.80639147       5.05074073       0.59138596      -0.06802735      -0.14935453
Ti       3.56599696       3.34063438       0.05108949      -0.43136871       0.30531234      -0.19688421
Nb       5.15893523       4.94240019       1.68128948      -0.76617455       0.68314737      -0.07184346
Nb       3.34371919       3.42778776       3.36311492       1.01338840      -1.02266181       0.36371085
Ti       5.11123348       4.99461236       5.02048668      -0.26610836       0.12192425       0.31426916
16
Lattice="6.753333333333334 0.0 0.0 0.0 6.753333333333334 0.0 0.0 0.0 6.753333333333334" Properties=species:S:1:pos:R:3:forces:R:3 group=TiZrNb_rattle10_b1 composition=TiZrNb energy=-138.8519744873047 pbc="T T T"
Nb      -0.09241010       0.01493896       0.10902104       0.09784373       0.23147188      -0.54254305
Zr       1.67531008       1.61189514       1.80492930      -0.30977836       0.84300101      -0.32033470
Zr      -0.12663705       0.06936699       3.34398382       0.25849539      -0.02865481       0.43575951
Nb       1.67344394       1.64863956       5.24786009      -0.34130201       0.66770631      -0.61862022
Ti       0.03405762       3.30545383      -0.14658995       0.00193785       0.03041385       0.15441462
Ti       1.53365938       5.08919644       1.67455076       0.42542309      -0.35999367      -0.04813787
Ti       0.10846961       3.41892315       3.34829888      -0.14090748      -0.06560685       0.35320821
Nb       1.83179451       5.19584016       5.08841498      -0.60033619      -0.87302315      -0.17834605
Zr       3.30346375       0.06096680      -0.02904717       0.32878578      -0.21014974       0.30046204
Ti       4.94570489       1.73933971       1.64046519       0.37198937       0.27175042       0.08198433
Nb       3.26100577       0.15716792       3.37593328       0.23228160      -0.56312639       0.07668533
Ti       4.90600496       1.66804427       4.84568903       0.46984971       0.33742088       0.58125466
Nb       3.47453824       3.26538849       0.00753404      -0.32419029       0.31217960      -0.06898055
Zr       5.04830214       5.14199323       1.69420782      -0.19680825      -0.69221920       0.13457426
Ti       3.39406597       3.29791552       3.42641015      -0.37723809       0.41570008      -0.00755697
Zr       5.08599544       5.05491972       5.13763780       0.10395409      -0.31687066      -0.33382341
54
Lattice="10.13 0.0 0.0 0.0 10.13 0.0 0.0 0.0 10.13" Properties=species:S:1:pos:R:3:forces:R:3 group=TiZrNb_rattle10_b9 composition=TiZrNb energy=-471.0897216796875 pbc="T T T"
Zr      -0.00479716       0.00123582      -0.01204221      -0.26043677       0.34229431       0.07280190
Nb       1.68058308       1.61805266       1.84919280      -0.11410075       0.73609644      -0.65856308
Zr      -0.07787756       0.02761929       3.50974530      -0.13885124      -0.19790003      -0.34636152
Nb       1.75545545       1.63218280       5.05986081      -0.67172492       0.29058811       0.43642044
Nb       0.05061702      -0.07145602       6.66586508      -0.08415575       0.07118814       0.30253834
Ti       1.52392369       1.72932557       8.38894463       0.51804769       0.11274461       0.08739086
Nb      -0.04145845       3.47891802      -0.00603046       0.23764262      -0.30574733      -0.23265763
Zr       1.69042210       5.17287100       1.66916033       0.24108219      -0.24768560       0.45989332
Ti       0.07564253       3.28715658       3.15943677       0.10714188      -0.00964883       0.93354130
Nb       1.56655018       5.04741242       5.32517715       0.05903629       0.32103041      -0.71358156
Ti       0.04372570       3.53046679       6.92616925       0.00953336      -0.26945004      -0.22273815
Ti       1.72987907       5.08936465       8.59946372      -0.29554400      -0.08327837      -0.36671779
Nb       0.02312208       6.81018002       0.02383618      -0.25264549      -0.15599337      -0.22525649
Nb       1.52188418       8.66159379       1.60168964       0.40136111      -1.01368082       0.57659620
Ti       0.12849204       6.86282010       3.34943217       0.09993878       0.22213955       0.36751077
Ti       1.71479109       8.60093118       5.22335310       0.09817185      -0.72189838      -0.40115643
Ti       0.01207617       6.83077151       6.92918365      -0.11723234      -0.01026136      -0.25620723
Zr       1.83654160       8.38252326       8.39751383      -0.76674378       0.18338248       0.27639008
Zr       3.36569748       0.08453910       0.05188955       0.28671485       0.40464318      -0.61899042
Ti       4.93894819       1.58845418       1.68254868       0.79513174       0.94908035      -0.19732341
Zr       3.43241118      -0.03752553       3.34376849      -0.36718035      -0.39443547       0.48296469
Zr       4.98323227       1.67917047       4.99228459       0.44963562      -0.01753953      -0.13511962
Nb       3.40886121      -0.06940533       6.91823021      -0.12378753       0.24072033      -0.42726207
Nb       5.02596503       1.78148257       8.16867678       0.23621102      -0.22031860       1.25632644
Ti       3.48999293       3.62149996       0.10712543      -0.11731893      -1.03008378      -0.12463786
Nb       5.23991405       5.00348199       1.62048324      -0.46797463      -0.15495619      -0.26042277
Nb       3.25557204       3.26013468       3.51579299      -0.00765705       0.69245458      -0.83005548
Zr       5.04909129       5.18985195       4.89145535      -0.99032664      -0.27446067       0.88038075
Zr       3.40955338       3.32486393       6.71184132      -0.74253100       0.32455918       0.36083800
Zr       4.99280398       5.25469643       8.31234250       0.56807053      -0.62175393       0.24209170
Zr       3.53911555       6.77480178      -0.04554920      -0.30731848       0.18724954       0.46007934
Zr       5.06988959       8.41103478       1.77110449       0.53027570       0.23083761      -0.23035683
Nb       3.43966057       6.73948070       3.35467852      -0.90033937       0.23762570       0.19978331
Ti       4.99776604       8.42800928       5.08069063       0.02541592      -0.16751324       0.04032774
Ti       3.27561892       6.82267072       6.84782692       0.21328971      -0.15901902      -0.91494691
Ti       5.16372127       8.44930712       8.38565481       0.11985198       0.21477789      -0.08913904
Nb       6.92710390       0.01610905      -0.06708438      -0.83555371       0.08811030       0.34664565
Nb       8.28568981       1.91033974       1.66008859       0.14271684      -0.34720770       0.02883294
Ti       6.92630002       0.20697143       3.28262612      -0.33988526      -0.56291723      -0.23742321
Zr       8.29492492       1.73535604       5.11090439       0.74231720       0.73167706      -0.17813620
Zr       6.69506441      -0.01634070       6.64104716      -0.00998783      -0.52355993       0.39231831
Zr       8.49432173       1.58553496       8.40112101      -0.08295965       0.55913305      -0.08443601
Nb       6.72275535       3.28846656      -0.10912251      -0.21899568       0.16371566       0.07428061
Zr       8.54121454       4.98785182       1.80928279      -0.21968651       0.39859343      -0.65165877
Nb       6.59346255       3.60066263       3.43063277       0.41065407      -1.31797600      -0.50285220
Zr       8.42382534       5.26416524       5.14389888       1.07920289      -0.71664172      -0.04259366
Ti       6.74265535       3.40592699       6.80804110       0.04570018       0.25744122       0.00237814
Ti       8.45313910       5.11737860       8.41672377      -0.14942606       0.07750936       0.28862399
Ti       6.76949403       6.94141533      -0.12406788       0.08274269      -0.73789150       0.28067487
Ti       8.44444266       8.32155956       1.58967147       0.04103690       0.31065893       0.26395121
Zr       6.74839912       6.63221502       3.32653028       0.40602720       1.26959980      -0.16892913
Ti       8.36081566       8.49599938       5.16153978       0.24866225      -0.43415588      -0.12417582
Nb       6.69994988       6.58436350       6.57569854       0.13642858       1.10977483       0.85168892
Nb       8.36462068       8.33796539       8.55534139       0.25032231      -0.03165200      -0.72357106
54
Lattice="10.13 0.0 0.0 0.0 10.13 0.0 0.0 0.0 10.13" Properties=species:S:1:pos:R:3:forces:R:3 group=TiZrNb_rattle10_b9 composition=TiZrNb energy=-471.275634765625 pbc="T T T"
Zr      -0.00778826       0.02419603       0.10261064       0.00732361       0.06036616      -0.46332934
Zr       1.72830403       1.65653350       1.76586645      -0.07265818       0.77305543      -0.50851047
Nb       0.08948662      -0.09510085       3.13617468      -0.06893072      -0.20764300       0.89782768
Nb       1.76347877       1.71936325       4.97899600      -0.24760059       0.26503548      -0.01742239
Ti       0.10924190       0.08251507       6.72256158      -0.17722879      -0.18023638      -0.16722257
Nb       1.54769566       1.68790602       8.32208406       0.22996552       0.33966705       0.56219548
Nb      -0.15062402       3.58626984      -0.04161798       0.07265028      -0.43934211       0.14443052
Ti       1.69854368       5.11365522       1.64320501      -0.26896107      -0.18363611       0.07122448
Ti       0.00661982       3.27596814       3.53389779      -0.09980942       0.64697200      -0.65546715
Nb       1.40094670       5.06247760       5.06121937       0.78303707      -0.35280681      -0.46464089
Nb       0.00630675       3.30840199       6.74683736      -0.17813426       0.21490231       0.19916910
Nb       1.62738219       4.99573396       8.46227877      -0.25602937      -0.12565973       0.38849437
Ti       0.07326480       6.75683311       0.00574946      -0.40909830      -0.27883914       0.19050388
Ti       1.80213775       8.34369941       1.59975698      -0.28439751       0.00335740      -0.01215813
Nb       0.00008103       6.81644388       3.40983052      -0.14093336      -0.18518855      -0.63590688
Ti       1.73392194       8.43134497       5.02912077      -0.37044281       0.10205501      -0.22996917
Zr      -0.06279529       6.77431485       6.58150092       0.11613619      -0.17319390       0.57353514
Zr       1.59346536       8.36336479       8.28445298       0.07706034       0.21171090       0.66115850
Ti       3.25242069      -0.06373044      -0.10834430       0.10705626       0.05916808      -0.03676090
Ti       4.86335957       1.47691772       1.61258048       0.64345843       0.89147615       0.06149283
Zr       3.45383788       0.04422027       3.36329316      -0.16097498      -0.17050093       0.28661472
Ti       5.23018114       1.67456647       5.18280176      -0.42029846       0.01455563      -0.60312581
Zr       3.34220894       0.00664105       6.64440345      -0.15766662       0.50503951       0.33957881
Zr       5.14185125       1.75764568       8.43701419      -0.77640569      -0.03926960       0.37342054
Ti       3.42262308       3.41797756       0.05870754      -0.31947422       0.06597647      -0.01043612
Nb       5.14358801       4.98983263       1.76631364      -0.02801332      -0.31308848      -0.22253515
Ti       3.43174847       3.53424249       3.22433842      -0.11418028      -0.24608970       0.32866111
Zr       5.19729396       4.97732812       5.09756217      -0.43160108       0.17879817      -1.26051033
Zr       3.36153768       3.47954871       6.73594678      -0.74327105      -0.60394710      -0.35455012
Zr       4.99291194       5.16980964       8.32274603       0.47781256      -0.75078750       1.33288455
Ti       3.39701677       6.69611440      -0.04921835      -0.15303703       0.06726798       0.46803349
Ti       5.02932459       8.59446839       1.74214889       0.10267687      -0.33487004      -0.21940055
Zr       3.35550120       6.83370299       3.32131406      -0.02552684      -0.45057529       0.03619358
Nb       4.82109776       8.42157811       5.27527466       1.10219228       0.01481962      -0.84056807
Zr       3.43799531       6.69165282       6.94639645      -1.02401769       0.26074392      -1.03824174
Nb       4.96874835       8.50863900       8.38956908       0.19005823       0.10816307       0.53400701
Zr       6.66244722       0.06056955      -0.00723774       0.34336630      -0.33675170       0.56270468
Nb       8.48648660       1.62119328       1.78279001      -0.29460216       0.58929563      -0.17443830
Nb       6.70517612       0.05008903       3.50922911       0.02514173      -0.42860603      -0.38555527
Zr       8.51953399       1.62103088       5.05418490       0.25463885       0.05910816      -0.22789304
Zr       6.93459391       0.05337624       6.94961865      -0.38050717      -0.77397698      -0.83162725
Ti       8.44402724       1.58380059       8.42881822       0.69835961       0.73819304       0.45388043
Ti       6.75392508       3.26946429      -0.09556233       0.38528621       0.38611811       0.68200099
Nb       8.38714905       5.11567918       1.62235684       0.07304845      -0.19801520       0.42511529
Ti       6.90415256       3.22231465       3.32862676      -0.23714888       0.24255338      -0.37433898
Nb       8.36707547       5.15407549       5.07952181       0.29797226      -0.37692675      -1.02622747
Zr       6.71070750       3.45680228       6.67526716       0.97095090      -0.38549006       0.38032523
Ti       8.41077040       5.03904260       8.35062616       0.24786146       0.08123658       0.48046362
Zr       6.48969230       6.72292972       0.00838848       0.78668851       0.31301874       0.29847950
Nb       8.49522447       8.49465282       1.70550462      -0.39259976      -0.57948375       0.20717987
Ti       6.56034089       6.81476572       3.35449180       0.70042938       0.30704170      -0.01223741
Nb       8.58660372       8.53462696       5.01904240      -0.34260309       0.06886220      -0.46180654
Zr       6.84218453       6.81946103       6.68082368       0.09604616       0.59468257       0.10214642
Nb       8.57837792       8.40664410       8.48170839      -0.21306519      -0.04831543       0.19315860
54
Lattice="10.13 0.0 0.0 0.0 10.13 0.0 0.0 0.0 10.13" Properties=species:S:1:pos:R:3:forces:R:3 group=TiZrNb_rattle10_b9 composition=TiZrNb energy=-470.8350524902344 pbc="T T T"
Nb      -0.02510176      -0.23272477      -0.08772622      -0.35885027       1.03499424       0.67394477
Zr       1.56475658       1.90351923       1.63821056      -0.21554485      -0.82645404      -0.08764099
Nb      -0.10064016      -0.02776267       3.44130205       0.13679360       0.05335400      -0.32167897
Ti       1.65043163       1.58664008       4.95788710      -0.24467202       0.00641215       0.28665042
Nb      -0.18042833      -0.00039908       6.83887700       0.53665936       0.34383050      -0.60713547
Ti       1.60334691       1.75296300       8.42976455       0.26274550      -0.29946318      -0.33211955
Ti      -0.03525475       3.29414011      -0.23335641      -0.10225324       0.44510236       0.44232771
Ti       1.72175261       5.20621165       1.74648399      -0.07483918      -0.57734179      -0.14320765
Ti      -0.10127746       3.34593967       3.23691640       0.17207518      -0.00342674       0.13010290
Zr       1.76906908       5.00644430       5.08398387      -0.17091666      -0.46536294      -0.88077950
Zr      -0.13659507       3.65146667       6.74345295       1.45521116      -1.72229719      -0.39757448
Zr       1.84712407       5.10359440       8.40881737      -0.35547960      -0.49810946       0.70700723
Nb      -0.04758021       6.61467331      -0.01191482      -0.10350341       0.06244700       0.23802437
Ti       1.63203810       8.48836364       1.65722227      -0.10705134      -0.01621759       0.11439475
Zr      -0.02682678       6.81531705       3.39666558       0.09017479      -0.07629262      -0.61627030
Ti       1.61694943       8.39095966       4.96320569      -0.17612827       0.89148664       0.62286943
Nb       0.17510571       6.74199170       6.72698507      -0.82040572       0.29319251      -0.14928380
Zr       1.46419348       8.45990079       8.33148313       1.00084233       0.31028885       0.08534397
Zr       3.32381956       0.02038931       0.05949221       0.21129148      -0.03855424      -0.45328099
Ti       4.85875339       1.58944737       1.76507292       0.35196704       0.39131725      -0.47518152
Ti       3.36106330      -0.16296042       3.43246864      -0.37098989       0.33040375      -0.15319222
Zr       4.89446110       1.80466751       4.98347561       0.40617964      -0.06566428       0.45070130
Nb       3.38488132       0.07523194       6.62350445      -0.31807253      -0.12521419       0.45254141
Nb       5.11955791       1.66364934       8.37239056      -0.38125139      -0.19694765       0.02692202
Ti       3.25690772       3.32747371       0.01017682       0.60264480       0.13159864      -0.04625592
Ti       5.11944605       5.14039426       1.57452089      -0.40124190      -0.15407968       0.68685287
Nb       3.25736922       3.10656918       3.31400056       0.38038635       1.21330631      -0.10735875
Nb       5.23433047       5.31095355       4.92781621      -0.53620803      -1.54854786       0.06804460
Ti       3.33463352       3.54241588       6.66142154       0.43592992      -1.06493032       0.12227984
Ti       5.08409649       4.94419210       8.30017205      -0.19655770      -0.24079703       0.40897292
Zr       3.38325812       6.74886986       0.00514993       0.21046840       0.19202954       0.35086340
Nb       5.14028839       8.45560520       1.74417119      -0.18345974      -0.14796932      -0.26212600
Zr       3.39749420       6.82896453       3.59783785      -0.11120498      -0.28341442      -1.53759122
Nb       4.95941016       8.41809119       5.07243569       0.54682600       0.97660094       0.43171874
Zr       3.38758680       6.69663638       6.76875041       0.24470744       0.57639968       0.07981871
Nb       5.17040227       8.35958008       8.37759229      -0.59051186       1.10996687       0.41530743
Nb       6.71730415      -0.10983051       0.05353363       0.15647057       0.41549003      -0.25470302
Nb       8.53592258       1.76825370       1.41889420      -0.13672639      -0.39643818       0.37552589
Zr       6.58739048       0.10507316       3.31145264       0.77278596      -0.32167152       0.05056745
Zr       8.36687928       1.72915526       5.09528333       0.30402455      -0.65464294      -0.58864480
Ti       6.88038294      -0.11052981       6.85362667      -0.49106133       0.15863547      -0.11685607
Ti       8.38645305       1.81863712       8.35854880       0.10288247      -0.91066581       0.66539121
Zr       6.66726140       3.37551743       0.04887353       0.02367436      -0.20682955      -0.20576291
Ti       8.45093987       5.06308008       1.71330527       0.07217662       0.00038955      -0.26477379
Nb       6.75623525       3.54506631       3.18751771      -0.47241193      -0.44060373      -0.15096241
Zr       8.43102085       4.99595418       4.92141640      -0.00267637       0.50591892      -0.24808431
Zr       6.91543218       3.37847533       6.72125191      -1.41191530       0.03493676       0.11453962
Ti       8.58373264       5.02166388       8.18014122      -0.60039604       1.02843368       1.44918692
Zr       6.79346989       6.68795229      -0.12343599       0.23077904       0.02913937       0.58415985
Ti       8.47067933       8.42870615       1.72337697      -0.14937836       0.18823285      -0.18122542
Nb       6.74080102       6.90033167       3.55636868       0.21511200      -0.01123054      -1.19946766
Nb       8.49183534       8.26836072       5.13254986      -0.17884979       0.89601207       0.20452763
Zr       6.64110886       6.77758748       6.86228335       0.85613418      -0.07135603      -0.38352820
Nb       8.54171568       8.48485107       8.47367364      -0.51638401      -0.25539675      -0.07390173
16
Lattice="6.753333333333334 0.0 0.0 0.0 6.753333333333334 0.0 0.0 0.0 6.753333333333334" Properties=species:S:1:pos:R:3:forces:R:3 group=TiZrNb_rattle18_b2 composition=TiZrNb energy=-138.31842041015625 pbc="T T T"
Zr       0.25143474      -0.17077352      -0.11700446      -0.81086260      -0.01605058      -0.25597954
Ti       1.64435138       1.41039828       1.77135643       0.00772256       1.12450504      -0.29067394
Nb      -0.01745919      -0.12003877       3.27711441      -0.20599091       0.17599794       0.64934850
Zr       1.58528706       1.87669391       4.99205376       0.71922529      -0.89230949      -0.27131322
Ti       0.07420964       3.29405384      -0.17103019      -0.31222925       0.43781233       1.19068861
Nb       1.63104901       5.27762096       1.72861418       0.50583243      -1.12386644      -0.16298509
Zr      -0.24399627       3.38049793       3.48598843       0.65079856      -0.45234379      -1.18276167
Nb       1.72229480       4.96743533       4.75411437       0.51948637       0.48381722       0.58969438
Ti       3.46719259       0.10195599      -0.03229316      -0.45771313      -0.86968154       0.20320855
Nb       5.09280333       1.38937670       1.77728831       0.32766539       0.97826469      -0.82943451
Nb       3.42706264       0.09172677       3.16629030      -0.33727288      -0.78754032       0.96319300
Zr       4.84551799       1.63222174       5.12749601       0.55606616      -0.09463808      -0.09945773
Zr       3.41344213       3.54336635       0.06791231      -0.28749633      -0.10045692       0.47218341
Ti       5.06526277       5.02143861       1.84046312       0.03799772       0.23179460      -0.76124430
Ti       3.44041484       3.40651223       3.30674592      -0.40912139      -0.08883721      -0.36471575
Ti       5.08578332       4.91206950       5.06242528      -0.50410831       0.99353260       0.15024903
16
Lattice="6.753333333333334 0.0 0.0 0.0 6.753333333333334 0.0 0.0 0.0 6.753333333333334" Properties=species:S:1:pos:R:3:forces:R:3 group=TiZrNb_rattle18_b2 composition=TiZrNb energy=-135.34005737304688 pbc="T T T"
Nb       0.11327921       0.16177504      -0.24954141      -0.49012011      -1.02993000       0.81680262
Nb       1.73862004       1.49075842       1.69075132       0.02228472       0.59781414      -0.65418708
Zr       0.23063752      -0.33032083       3.72761096      -3.05763865       1.61136460      -2.62927866
Zr       1.77367058       1.67212204       4.75878983      -2.21058536       0.40118551       2.96115398
Nb      -0.15093422       3.23726723       0.18662657       2.43689275       2.74709821      -2.45181108
Zr       2.03893522       5.16051723       1.73962858      -1.08453631      -0.48439419      -0.71219218
Ti      -0.24616807       3.19183273       3.46479189       1.78074908       2.19542360       0.05754313
Ti       1.63125715       5.02503475       4.82563705       1.41326368      -1.65767479       2.64890909
Ti       3.20898772       0.16866306      -0.21685322       1.04700816      -0.38051990       0.18726851
Zr       5.38750194       1.85760536       1.66351093      -2.85899591      -3.48882914       0.91303402
Ti       3.41034117       0.26817655       3.48255885       1.61396980      -1.43672276      -0.83318228
Ti       5.25278755       1.96915505       4.94531820      -0.64391482      -1.57538366       1.26752996
Ti       3.45824751       3.33326279       0.12818652      -0.47882590      -0.04410016      -0.54763353
Nb       4.98705503       5.16882280       1.54947865       0.42041907       0.41727918       0.17780811
Zr       3.24616942       3.22667458       3.62672259       1.50410569       1.51564479      -2.36545467
Nb       4.77509131       5.01325774       4.88047556       0.58592284       0.61174512       1.16369033
16
Lattice="6.753333333333334 0.0 0.0 0.0 6.753333333333334 0.0 0.0 0.0 6.753333333333334" Properties=species:S:1:pos:R:3:forces:R:3 group=TiZrNb_rattle18_b2 composition=TiZrNb energy=-137.99868774414062 pbc="T T T"
Ti       0.17140674      -0.30167191       0.14610605      -0.84942502       0.82129258      -0.04016576
Nb       1.53281555       1.77981898       1.71966119       0.00506884      -0.18573487      -0.35192570
Nb      -0.08211399       0.35405672       3.25838959      -0.04578103      -1.18761420      -0.03856313
Nb       1.70687860       1.44836977       5.29421662      -1.12927639       1.22323585      -0.87756646
Ti      -0.16055432       3.00009481      -0.03369539       0.13339108       0.35938185       0.20678864
Ti       1.77686506       4.91571459       1.58581117      -0.35834306       0.16896012       0.25945455
Zr      -0.19100139       3.39551128       3.46230758       0.46414316       0.23450136      -0.04406159
Zr       1.78990235       5.21499229       5.01024643      -0.95778918      -0.80807281       0.07273491
Nb       3.24224352       0.12874050      -0.10289640       0.90907049      -0.84806538       0.98934174
Ti       4.51705553       1.56000105       1.67283057       1.58484435       0.53382266      -0.77410424
Zr       3.34639985      -0.02344052       3.33194630      -0.09148064      -0.51047736       0.08626219
Nb       5.07069121       1.65304246       4.97138340      -0.12981930      -0.50464433       1.06463718
Ti       3.18338715       3.37612713      -0.08254331       0.14788345      -0.46364099       0.12063707
Zr       5.03451722       4.87685050       1.62282290      -0.03821142       0.34183618      -0.19501823
Zr       3.27729007       3.22114846       3.47904830      -0.19428375       0.40618396       0.06060909
Ti       4.92539582       4.95626786       5.38350618       0.55000824       0.41903552      -0.53906047
16
Lattice="6.753333333333334 0.0 0.0 0.0 6.753333333333334 0.0 -0.12145503506461855 0.0 6.753333333333334" Properties=species:S:1:pos:R:3:forces:R:3 group=TiZrNb_strain_shear_b0 composition=TiZrNb energy=-139.483642578125 pbc="T T T"
Nb      -0.03183379      -0.00132612      -0.01039271       0.08271496      -0.13932852       0.03970950
Ti       1.69029480       1.70232709       1.66969870      -0.24844222      -0.14463519      -0.06981286
Ti      -0.07467505      -0.00114220       3.35914315       0.02989321      -0.05831890      -0.00295835
Nb       1.55473753       1.66980956       5.04586240      -0.05246069      -0.10016686       0.13434789
Nb      -0.00900486       3.29699737       0.00179210       0.00951634       0.26824915      -0.00676447
Nb       1.67243772       5.07888621       1.72072300      -0.23849005       0.10836384      -0.20606989
Zr      -0.10095480       3.37061976       3.37873585      -0.00790647       0.06320068      -0.04352249
Zr       1.63998374       5.08124827       5.06131051      -0.30405265       0.12381680       0.13607910
Nb       3.40612874       0.03873821       0.00176839      -0.08046038      -0.09066547      -0.08181185
Zr       5.02333644       1.68220782       1.68403580       0.13228437      -0.06983521       0.03492246
Zr       3.32261747       0.01812321       3.36475363       0.05499411       0.00926048       0.08102791
Ti       4.97344665       1.67893310       5.05791653       0.08080091      -0.08559946       0.11398227
Zr       3.39117874       3.40026823       0.01782066      -0.01375011      -0.05200210      -0.07370968
Ti       4.97202883       5.07824961       1.68391772       0.29760641       0.07082390      -0.08933298
Ti       3.26086295       3.39675384       3.42713855       0.10882927      -0.06886505      -0.10301460
Ti       4.96899867       5.03614020       5.06511979       0.14892291       0.16570166       0.13692810
16
Lattice="6.753333333333334 0.0 0.0 0.0 6.753333333333334 0.0 0.12051183480125156 0.0 6.753333333333334" Properties=species:S:1:pos:R:3:forces:R:3 group=TiZrNb_strain_shear_b0 composition=TiZrNb energy=-139.4925537109375 pbc="T T T"
Zr      -0.01873804       0.01067013       0.02309546       0.25023612       0.01851187       0.04407851
Zr       1.69568049       1.70528455       1.69344993       0.19259456       0.15375283       0.08645730
Ti       0.07129261      -0.05331051       3.35627141       0.11370976       0.15357190       0.09195001
Nb       1.74315460       1.71270223       5.05525302       0.18810254       0.18318349      -0.11372282
Ti      -0.01340322       3.35173928       0.01691327       0.21745384       0.08231689      -0.04729963
Ti       1.72230507       5.08433005       1.71780423       0.14841814      -0.20472994       0.05474323
Ti       0.07937443       3.36464339       3.35819604       0.13043568       0.09647360       0.10424379
Nb       1.78259523       5.12539983       5.09917099       0.05838458      -0.40381497      -0.21525174
Nb       3.36569778      -0.08994499      -0.01426301      -0.27273953       0.28856048       0.13507593
Ti       5.09225525       1.69352415       1.69649337      -0.17001657       0.07722634       0.12430122
Nb       3.41410735       0.04296182       3.35102551      -0.17961641      -0.06708375       0.00279922
Zr       5.12924599       1.66387400       5.08038054      -0.06536473       0.21155210      -0.18553314
Ti       3.38553192       3.38469878       0.02552376      -0.30196315      -0.04876466      -0.05989044
Zr       5.09422928       5.08714216       1.65287593      -0.07092436      -0.26702124       0.30552432
Nb       3.45261659       3.40700898       3.38657748      -0.27540827      -0.03698736      -0.05779431
Zr       5.13712510       5.05907656       5.08016274       0.03669771      -0.23674744      -0.26968139
16
Lattice="6.753333333333334 0.0 0.0 0.0 6.753333333333334 0.0 0.2153940710644967 0.0 6.753333333333334" Properties=species:S:1:pos:R:3:forces:R:3 group=TiZrNb_strain_shear_b0 composition=TiZrNb energy=-139.60337829589844 pbc="T T T"
Ti       0.03700126       0.06662509      -0.01194006      -0.07088134      -0.25303787       0.05612756
Zr       1.74996701       1.67681834       1.68715894      -0.11361977      -0.23052515      -0.06830142
Ti       0.09305270       0.01478644       3.36533568       0.08690903      -0.05816397       0.00868098
Ti       1.83189978       1.67000259       5.08691068      -0.05180895      -0.08295566       0.05778258
Nb       0.03060555       3.40858328      -0.00329543      -0.03585015      -0.00305501       0.00889977
Zr       1.74891414       5.00711159       1.71424013      -0.13461348       0.36015409      -0.15029526
Ti       0.12295411       3.36671709       3.37431598      -0.04160950       0.06917954      -0.00727472
Nb       1.87914624       5.04192163       5.11045724      -0.22220163       0.27596077       0.04358466
Ti       3.37099632       0.00768645       0.00438515       0.04131056      -0.06013155      -0.01654741
Nb       5.16362964       1.66787499       1.67061259       0.05500562      -0.08840740      -0.04366555
Ti       3.48863232      -0.00229175       3.37674147      -0.04311693       0.01112100       0.04912678
Zr       5.25408320       1.74030224       5.07345960       0.17574632      -0.40175137       0.05471710
Nb       3.41846921       3.28435321      -0.01374572      -0.09004036       0.17696205       0.09670850
Nb       5.07342406       5.10740048       1.69391554       0.30266538       0.06496387      -0.19428192
Zr       3.46932073       3.33090358       3.43857452       0.00744769      -0.00082649      -0.13142470
Zr       5.24687767       5.08919301       5.03296661       0.13465744       0.22051308       0.23616301
16
Lattice="6.475016782597806 0.0 0.0 0.0 6.475016782597806 0.0 0.0 0.0 6.475016782597806" Properties=species:S:1:pos:R:3:forces:R:3 group=TiZrNb_strain_vol_b0 composition=TiZrNb energy=-137.55752563476562 pbc="T T T"
Zr       0.05737726      -0.02372383      -0.04558271       0.21221375       0.17949988       0.15618798
Zr       1.68234141       1.63287415       1.56783890      -0.20526785      -0.08931008       0.37234750
Ti      -0.01888210      -0.00825400       3.20964866       0.24848829       0.01363692       0.16031893
Ti       1.59232603       1.57316211       4.79865808       0.23956499       0.34452999      -0.17856710
Nb       0.04362850       3.23765667      -0.03232304       0.26085812      -0.11323789      -0.09621041
Ti       1.64729511       4.86068813       1.62361793       0.05758345      -0.07860380       0.06447113
Ti      -0.00605833       3.27993322       3.25916125       0.21076649      -0.13544784       0.14764860
Nb       1.62745968       4.88016053       4.86101761       0.24188745      -0.14808139      -0.39036921
Ti       3.27483344       0.03986713      -0.04628513      -0.39291137      -0.11031551      -0.06394830
Zr       4.86531898       1.61946799       1.61795219       0.07655406       0.00795445       0.30458784
Ti       3.22340256      -0.04123390       3.24816563      -0.19110620       0.12670615       0.15430655
Nb       4.81982150       1.58045458       4.88761653      -0.01665473       0.27183741      -0.53582287
Nb       3.24297864       3.24129426      -0.01993162      -0.35423315       0.00733465      -0.33282274
Zr       4.83304824       4.85336365       1.59303676       0.03662899       0.05129912       0.35712004
Nb       3.21384683       3.26211334       3.19489925      -0.23017089      -0.05850628       0.48971987
Zr       4.86820588       4.88106913       4.91400435      -0.19420193      -0.26929605      -0.60896790
16
Lattice="6.888138032522848 0.0 0.0 0.0 6.888138032522848 0.0 0.0 0.0 6.888138032522848" Properties=species:S:1:pos:R:3:forces:R:3 group=TiZrNb_strain_vol_b0 composition=TiZrNb energy=-139.0944061279297 pbc="T T T"
Ti       0.00683558      -0.01679014       0.02319767      -0.15540013       0.18989329       0.27023214
Ti       1.70408151       1.71298802       1.65501607       0.28959730      -0.12924734       0.15819344
Nb       0.00625015       0.04261083       3.41757392      -0.17725275       0.03193131      -0.41591892
Zr       1.74201795       1.69745681       5.14716712       0.20867190      -0.19947311       0.01942677
Zr       0.00817000       3.44823467      -0.00781965      -0.10477163      -0.14463849       0.52251357
Nb       1.76359573       5.20707332       1.71172343       0.17596164       0.20176931       0.08358749
Zr       0.00728008       3.42586095       3.46488702      -0.07937919      -0.03256395      -0.55007476
Zr       1.70738749       5.23012268       5.20969455       0.26801863       0.15445264      -0.14565243
Ti       3.45188721      -0.02105529      -0.01721559       0.12543291       0.19308537       0.30743152
Ti       5.13439288       1.74542214       1.72740304      -0.18055820      -0.18295813       0.00805569
Ti       3.45153694       0.00034894       3.45337319       0.11747481       0.12451190      -0.31334034
Nb       5.15828653       1.75950443       5.17785783      -0.23906165      -0.43236601      -0.01886044
Nb       3.43480787       3.45122859      -0.05857397       0.12373316      -0.14651358       0.57864666
Ti       5.12745116       5.23467763       1.69919527      -0.12170759       0.02629282       0.11455771
Nb       3.47301630       3.46846890       3.45854639       0.03238867      -0.13248236      -0.51636612
Zr       5.19424731       5.12301942       5.20535953      -0.28314802       0.47830644      -0.10243209
16
Lattice="6.564574794342808 0.0 0.0 0.0 6.564574794342808 0.0 0.0 0.0 6.564574794342808" Properties=species:S:1:pos:R:3:forces:R:3 group=TiZrNb_strain_vol_b0 composition=TiZrNb energy=-138.5940399169922 pbc="T T T"
Nb       0.00731773      -0.00935924      -0.01941773       0.28095135       0.06385041       0.05448590
Nb       1.63427388       1.60218389       1.67502729      -0.21612434       0.22841470      -0.42919829
Nb       0.05822479       0.01959199       3.30800500      -0.02587035      -0.11778710       0.03230111
Ti       1.62686892       1.66357114       4.93947143      -0.37470442       0.21327339       0.15659210
Nb       0.00366160       3.29047267       0.02566250       0.37929821      -0.00663282      -0.16479301
Ti       1.64866745       4.92621524       1.61208347      -0.41443273      -0.09711894      -0.13803092
Nb      -0.00588733       3.30111558       3.23384361       0.45531827       0.10980379       0.31946799
Ti       1.67102628       4.96947461       4.92146037      -0.44152883      -0.36271954       0.10275163
Zr       3.32186380      -0.01803130      -0.05158843      -0.28325266       0.07983075       0.22554819
Zr       4.96359867       1.68739465       1.68347436       0.17129540      -0.13513219      -0.33802161
Zr       3.22704399       0.00400907       3.27028747       0.10391623      -0.07576486       0.00113082
Ti       4.88309440       1.67550867       4.93190235       0.43277067       0.06534368       0.06866456
Ti       3.27018268       3.29967449      -0.00223592      -0.23141980      -0.07197368       0.02036208
Ti       4.94867274       4.92075019       1.66120901       0.28786969       0.04849792      -0.14901936
Zr       3.27520091       3.27540216       3.22439390      -0.37911135       0.16330647       0.20723167
Zr       4.96178407       4.88575930       4.93055279       0.25502473      -0.10519211       0.03052714
16
Lattice="6.82 0.0 0.0 0.0 6.82 0.0 0.0 0.0 6.82" Properties=species:S:1:pos:R:3:forces:R:3 group=TiZr_md1400_b1 composition=TiZr energy=-130.4600067138672 pbc="T T T"
Ti       0.00000000       0.00000000       0.00000000       0.08898865      -0.08898933       0.25649053
Ti       1.70500000       1.70500000       1.70500000      -0.08927513      -0.08927494       0.27267373
Ti       0.00000000       0.00000000       3.41000000       0.09009256      -0.09009233      -0.26527748
Zr       1.70500000       1.70500000       5.11500000      -0.13883665      -0.13883662      -0.39995152
Zr       0.00000000       3.41000000       0.00000000       0.12758088       0.12758161       0.38808322
Ti       1.70500000       5.11500000       1.70500000      -0.09567995       0.09569106       0.28294927
Ti       0.00000000       3.41000000       3.41000000       0.09177011       0.09177427      -0.26292443
Zr       1.70500000       5.11500000       5.11500000      -0.13259426       0.13260244      -0.38157332
Zr       3.41000000       0.00000000       0.00000000      -0.12759113      -0.12759201       0.38808191
Zr       5.11500000       1.70500000       1.70500000       0.13178435      -0.13177107       0.37669885
Ti       3.41000000       0.00000000       3.41000000      -0.09178046      -0.09178445      -0.26292408
Zr       5.11500000       1.70500000       5.11500000       0.13813126      -0.13812186      -0.39695293
Zr       3.41000000       3.41000000       0.00000000      -0.12965801       0.12965804       0.39803022
Ti       5.11500000       5.11500000       1.70500000       0.08927441       0.08927411       0.27267313
Ti       3.41000000       3.41000000       3.41000000      -0.09104869       0.09103879      -0.26612824
Zr       5.11500000       5.11500000       5.11500000       0.13884212       0.13884245      -0.39994913
16
Lattice="6.82 0.0 0.0 0.0 6.82 0.0 0.0 0.0 6.82" Properties=species:S:1:pos:R:3:forces:R:3 group=TiZr_md1400_b1 composition=TiZr energy=-129.26478576660156 pbc="T T T"
Ti       0.12478613      -0.14415165      -0.03783758      -0.18656312       0.36191979       0.50028896
Ti       1.81432683       1.83352043       1.64075858      -0.95716172      -1.04134130       0.87257600
Ti      -0.26430628       0.12549638       3.51976885       0.82212025      -0.88724101      -1.01577222
Zr       1.56798837       1.71752467       4.92100440       0.22594690      -0.44005883      -0.13742565
Zr       0.27495619       3.48162448       0.06590836      -0.87138498      -0.22118032       0.11937019
Ti       1.71045638       5.00062851       1.84378614       0.31307846       0.81434023       0.06313267
Ti       0.07555251       3.82759886       3.45934650      -0.66682637      -0.79651535      -0.51395577
Zr       1.63068531       5.07284615       5.13513296       0.65061188       0.67443866      -0.50730765
Zr       3.39601237      -0.10198114       0.02424318      -0.30941045      -0.07156643       0.20271447
Zr       5.01630517       1.72914617       1.65237414       1.38942242       0.17301057      -0.05086565
Ti       3.72228352       0.23834390       3.28712874      -1.13985300      -1.08099055       0.12192667
Zr       5.19197223       1.64270175       4.98612100      -0.10684404       0.84251511       0.70444107
Zr       3.35734561       3.15511256       0.14187412       0.36106038       0.95396686      -0.70486146
Ti       5.12458927       4.98499326       1.50205632       0.00843399       0.33874667       0.66799104
Ti       3.28247246       3.27590399       3.38185846       0.39899725       0.50533140       0.04205787
Zr       4.98780051       5.09832833       5.17732503       0.06837188      -0.12537545      -0.36431119
16
Lattice="6.82 0.0 0.0 0.0 6.82 0.0 0.0 0.0 6.82" Properties=species:S:1:pos:R:3:forces:R:3 group=TiZr_md1400_b1 composition=TiZr energy=-128.98190307617188 pbc="T T T"
Ti       0.22992787      -0.21698706       0.05652810      -0.52471197       0.46945679       0.14063783
Ti       1.70957237       1.58349150       1.70800601      -0.58244336      -0.31682101       0.58561623
Ti      -0.31093555       0.11995762       3.27785623       0.56129134      -1.01937449      -0.42641354
Zr       1.43615893       1.71394516       4.69924144       0.49993494      -0.48516026       0.50879872
Zr       0.47156239       3.47779430       0.13590064      -1.01858902      -0.17917243       0.05734733
Ti       1.75488378       5.14942099       2.05790580       0.45655364       0.67647123      -0.42559567
Ti       0.04191610       3.94578296       3.39425755      -0.95132482      -1.07990885      -0.34866259
Zr       1.62594864       5.09749494       5.09030971       0.56104678       0.71254700      -0.32170394
Zr       3.38054253      -0.24130497       0.10409593      -0.31234825       0.36713499      -0.11015768
Zr       5.02064464       1.74617930       1.59078479       2.08482361       0.29668525      -0.13204293
Ti       3.72968452       0.36934579       3.22638560      -1.27332973      -1.55535507       0.68776524
Zr       5.27149939       1.72155420       4.92547468      -0.11049753       0.49089631       0.93780935
Zr       3.35468215       3.00802439       0.19067196      -0.46318519       1.17900622      -1.04270077
Ti       5.18670250       4.95420989       1.45439096      -0.16531804       0.24958059       0.66455936
Ti       3.24823642       3.35470178       3.43069873       0.48265415       0.15690169      -0.26341784
Zr       4.83743850       5.05542940       5.22820612       0.75544423       0.03711207      -0.51183963
16
Lattice="6.82 0.0 0.0 0.0 6.82 0.0 0.0 0.0 6.82" Properties=species:S:1:pos:R:3:forces:R:3 group=TiZr_md600_b0 composition=TiZr energy=-130.5092315673828 pbc="T T T"
Zr       0.00000000       0.00000000       0.00000000      -0.37876073       0.13253976      -0.13255551
Zr       1.70500000       1.70500000       1.70500000      -0.13116348       0.13116671      -0.12765251
Zr       0.00000000       0.00000000       3.41000000      -0.38360080       0.13309655       0.13309717
Ti       1.70500000       1.70500000       5.11500000      -0.09256779       0.09258486       0.07467539
Ti       0.00000000       3.41000000       0.00000000      -0.27522174      -0.09037340      -0.09037435
Zr       1.70500000       5.11500000       1.70500000      -0.13646331      -0.13647279      -0.13082758
Ti       0.00000000       3.41000000       3.41000000      -0.28094262      -0.09466136       0.09465456
Zr       1.70500000       5.11500000       5.11500000      -0.13117078      -0.13115466       0.12766545
Ti       3.41000000       0.00000000       0.00000000       0.26623118       0.08892494      -0.08892407
Ti       5.11500000       1.70500000       1.70500000       0.09336238       0.09337183      -0.07749269
Zr       3.41000000       0.00000000       3.41000000       0.40142179       0.13951053       0.13951337
Ti       5.11500000       1.70500000       5.11500000       0.09682339       0.09681587       0.07770866
Zr       3.41000000       3.41000000       0.00000000       0.37875396      -0.13254727      -0.13255128
Ti       5.11500000       5.11500000       1.70500000       0.09633626      -0.09632912      -0.07752694
Zr       3.41000000       3.41000000       3.41000000       0.38359731      -0.13310727       0.13309103
Ti       5.11500000       5.11500000       5.11500000       0.09336507      -0.09336518       0.07749918
16
Lattice="6.82 0.0 0.0 0.0 6.82 0.0 0.0 0.0 6.82" Properties=species:S:1:pos:R:3:forces:R:3 group=TiZr_md600_b0 composition=TiZr energy=-130.02413940429688 pbc="T T T"
Zr       0.09894924      -0.01039949       0.01615141      -0.81648821       0.25109428      -0.06660560
Zr       1.69523240       1.82599904       1.81991046       0.17414956      -0.30550900      -0.13597888
Zr      -0.08825273      -0.01328947       3.39921482      -0.43181592       0.16133179       0.12531862
Ti       1.64282560       1.57217100       5.28868054       0.11468297       0.51812291      -0.55086523
Ti       0.09753182       3.33175379       0.05843287      -0.34843469       0.18218741      -0.32556695
Zr       1.73797576       5.24056358       1.75239090      -0.07708496      -0.17437768      -0.27152163
Ti       0.01045578       3.36665964       3.28213958      -0.20870146       0.29817304       0.54507923
Zr       1.57782225       5.21471332       5.13483206      -0.00164485      -0.54311943       0.03893480
Ti       3.37496140       0.00219955      -0.16870059       0.55731022       0.11936410       0.26437467
Ti       5.27083038       1.96564820       1.71600503      -0.32604277      -0.45564574      -0.15107086
Zr       3.40351284      -0.06774990       3.43831005       0.63461667       0.48930624       0.04633727
Ti       5.18389359       1.78702721       5.03312494      -0.04652276       0.06135175       0.22060475
Zr       3.33785460       3.36378980       0.05051892       0.48939115      -0.02882897      -0.43705299
Ti       5.25810321       5.14495073       1.52437530      -0.27545255      -0.14240745       0.03962802
Zr       3.42906585       3.53717367       3.32288504       0.37175095      -0.36009476       0.45696691
Ti       5.09869887       5.02310239       5.10733513       0.19028656      -0.07094860       0.20141795
16
Lattice="6.82 0.0 0.0 0.0 6.82 0.0 0.0 0.0 6.82" Properties=species:S:1:pos:R:3:forces:R:3 group=TiZr_md600_b0 composition=TiZr energy=-129.7366485595703 pbc="T T T"
Zr       0.11715045       0.00524933       0.01711186      -0.94151461       0.47523934       0.18242446
Zr       1.68448965       1.90415197       1.95267805       0.28482100      -0.54662859      -0.25665432
Zr      -0.22539832      -0.01206818       3.38846323      -0.03172597       0.05158743       0.00627433
Ti       1.59039275       1.58322161       5.35553820       0.34179205       0.51123303      -0.89207071
Ti       0.11252828       3.29571162       0.00654111      -0.10615438       0.33292827      -0.18482341
Zr       1.76320332       5.32524595       1.75624051      -0.05087930      -0.22479118      -0.26270843
Ti      -0.08078314       3.35239825       3.28611363       0.18226781       0.74283469       0.63024127
Zr       1.45910677       5.25086043       5.18029066       0.45055881      -0.68967521      -0.28105921
Ti       3.52717178       0.05511105      -0.28052953       0.24982335       0.07855614       0.43331915
Ti       5.28610832       2.12807043       1.68766730      -0.47094119      -0.92558002      -0.27974570
Zr       3.50639113      -0.06789146       3.45978997       0.28091425       0.57869494       0.02191821
Ti       5.28802984       1.85247987       4.99956328      -0.32260635       0.01098108       0.36756977
Zr       3.33464018       3.32031550       0.04995969       0.23723990       0.06304289      -0.55448276
Ti       5.30123936       5.13882241       1.37163543      -0.41257581      -0.14852738       0.21744727
Zr       3.48848416       3.62437401       3.27360109       0.10007519      -0.36940631       0.62708461
Ti       5.10198472       4.91447547       5.15895280       0.20890553       0.05951105       0.22526549
16
Lattice="6.82 0.0 0.0 0.0 6.82 0.0 0.0 0.0 6.82" Properties=species:S:1:pos:R:3:forces:R:3 group=TiZr_rattle05_b0 composition=TiZr energy=-130.3333740234375 pbc="T T T"
Ti      -0.01854732      -0.03084757       0.02617368      -0.24589477       0.14081553      -0.02036620
Zr       1.70204053       1.66835604       1.73383735       0.27373004      -0.10024222      -0.30792448
Zr       0.04578927      -0.08386546       3.45233383      -0.38458961       0.15621655      -0.18786232
Zr       1.57453850       1.69307750       5.05631146       0.57537389      -0.27449149       0.38816947
Zr      -0.00903584       3.36087587      -0.07738393      -0.29313105       0.01583961       0.31545159
Zr       1.64397726       5.12102062       1.61800417       0.31226107       0.13448071      -0.06030476
Zr      -0.07716247       3.42055078       3.49088558      -0.12505949      -0.05554105      -0.36647961
Ti       1.62288452       5.10464749       5.11544652       0.40664279       0.19876669       0.15076774
Ti       3.35094575      -0.03628636       0.03096635       0.22111347       0.15439638      -0.06081861
Ti       5.13767985       1.72454333       1.71170008      -0.22343005      -0.18824628      -0.22156289
Ti       3.50136963       0.06476864       3.41757965      -0.08757040      -0.09103525      -0.12220933
Ti       5.06341717       1.73106393       5.10279885      -0.20277798      -0.27215549       0.26991647
Ti       3.39268008       3.51219422      -0.04938377       0.09170119      -0.25591132       0.06223306
Ti       5.07144248       5.09193261       1.68130788      -0.06142257       0.22045390      -0.18226784
Zr       3.42724498       3.47382295       3.38571300       0.03974263      -0.07145749      -0.00640438
Zr       5.07504844       5.15995814       5.09914867      -0.29668927       0.28811118       0.34966207
16
Lattice="6.82 0.0 0.0 0.0 6.82 0.0 0.0 0.0 6.82" Properties=species:S:1:pos:R:3:forces:R:3 group=TiZr_rattle05_b0 composition=TiZr energy=-130.4748077392578 pbc="T T T"
Zr      -0.02052119       0.10343791       0.06453841       0.14021836      -0.08147148      -0.24338232
Zr       1.64001787       1.77318482       1.60920813       0.10877351       0.07144219      -0.03558563
Ti       0.02911989       0.07042061       3.37956336       0.06766195      -0.02977454       0.09153751
Ti       1.79203507       1.68528472       5.10293452      -0.23562521       0.09680881       0.16805515
Ti      -0.03292031       3.45196115       0.05723189       0.04126570      -0.07532810      -0.31899899
Ti       1.66453714       5.07879015       1.72505001      -0.01804533       0.03598177      -0.09288859
Ti       0.04476154       3.39241429       3.35528040      -0.01392647      -0.05624494       0.23646817
Zr       1.68297598       5.07957819       5.14642749      -0.16328800       0.07370293       0.02985678
Ti       3.42734700      -0.02534893       0.09109988      -0.16991359       0.14062104      -0.34120673
Zr       5.07493224       1.74516361       1.69755023       0.10290164       0.08262397      -0.16044831
Zr       3.39863679       0.06933458       3.37018978      -0.16855358      -0.07140304       0.17891119
Ti       5.17032498       1.70440292       5.05908061       0.03210071       0.11143523       0.21625610
Ti       3.35885021       3.47902813      -0.06455213       0.05612126      -0.23266184      -0.06653884
Zr       5.00834215       5.05835122       1.65970405       0.28873530       0.01548271       0.02885036
Zr       3.44153596       3.37939418       3.45067541      -0.19458817       0.01414154       0.14199762
Zr       5.14133469       5.18049844       5.04293278       0.12616169      -0.09535628       0.16711669
16
Lattice="6.82 0.0 0.0 0.0 6.82 0.0 0.0 0.0 6.82" Properties=species:S:1:pos:R:3:forces:R:3 group=TiZr_rattle05_b0 composition=TiZr energy=-130.43930053710938 pbc="T T T"
Ti       0.01568793       0.09358468       0.03543766       0.07007279      -0.40319437      -0.14160542
Zr       1.65377632       1.62222926       1.77528305       0.23366381       0.12794961       0.11270159
Zr       0.02118431      -0.01002060       3.40043203       0.09626511      -0.21833964       0.18666627
Ti       1.61729641       1.69991039       5.10881444       0.28138235      -0.01943569      -0.12011669
Zr      -0.06911828       3.37487639      -0.06468802       0.47972345       0.22028744       0.06787414
Ti       1.73691826       5.05324057       1.75759951       0.06757600       0.12582840      -0.05635948
Zr      -0.04534296       3.44625030       3.40682493       0.21103716       0.08900686       0.10960548
Ti       1.75850951       5.11251462       5.13923823       0.03864807       0.10447603      -0.08246958
Zr       3.37174719       0.06594609       0.00974065      -0.16911897      -0.38804865      -0.10182555
Ti       5.10982489       1.69839156       1.69006457      -0.04560137      -0.03395420       0.22818086
Ti       3.51387088       0.05439323       3.40181509      -0.32820147      -0.27331311       0.15437753
Zr       5.05040054       1.69091570       5.13276876       0.00779185      -0.15465248      -0.24708092
Zr       3.50368103       3.33441111      -0.00421429      -0.54218841       0.35535991      -0.08213972
Zr       5.09999813       5.08421086       1.73002028      -0.09775205       0.20182514       0.04588236
Ti       3.39636523       3.43863277       3.45607716      -0.10233693       0.01981464       0.06465778
Ti       5.16003365       5.10657103       5.16455507      -0.20096183       0.24639010      -0.13834868
16
Lattice="6.82 0.0 0.0 0.0 6.82 0.0 0.0 0.0 6.82" Properties=species:S:1:pos:R:3:forces:R:3 group=TiZr_rattle10_b1 composition=TiZr energy=-129.89639282226562 pbc="T T T"
Ti      -0.07111232      -0.03348362      -0.02412113       0.26428762       0.21803631      -0.21473086
Zr       1.69102156       1.68548184       1.81124002      -0.61205709      -0.02620994      -0.51293409
Ti       0.12439036       0.00269946       3.34353242      -0.00137106      -0.19924255       0.34971488
Ti       1.78368614       1.67271843       5.12844518      -0.33883309      -0.08600300       0.20581187
Ti      -0.13953070       3.28876101      -0.15341046       0.77108723       0.35065538       0.57996029
Ti       1.75221311       5.16496913       1.34659012      -0.62466550       0.11850866       0.45142823
Ti      -0.01493065       3.41750267       3.56287867       0.47187054       0.21280143      -0.43342376
Ti       1.57850878       5.04952409       5.20802811       0.02176701       0.21614735       0.06485488
Ti       3.53510140      -0.02751662      -0.04389343      -0.41693744       0.15768626      -0.21467623
Zr       4.98951815       1.64077670       1.74621778       0.86598694      -0.00577548      -0.03555989
Zr       3.30812338      -0.04915094       3.34262669      -0.29686183      -0.23392633       0.42288795
Zr       5.17132523       1.95432338       5.08065588      -0.17274791      -1.29199004      -0.04843786
Zr       3.42309876       3.44110721       0.23998892      -0.34346628      -0.10461971      -0.70924890
Zr       5.16321042       5.21101840       1.74098909       0.54729825      -0.18951967      -0.04167394
Zr       3.36011755       3.39833864       3.44848433      -0.56480056       0.39984572       0.18694620
Zr       5.05211143       5.10311283       5.12856448       0.42944330       0.46360570      -0.05091858
16
Lattice="6.82 0.0 0.0 0.0 6.82 0.0 0.0 0.0 6.82" Properties=species:S:1:pos:R:3:forces:R:3 group=TiZr_rattle10_b1 composition=TiZr energy=-129.88755798339844 pbc="T T T"
Ti       0.01730616       0.01338254       0.10645472       0.23894124       0.41438702      -0.23459488
Ti       1.72609601       1.85087480       1.72090069      -0.21432877      -0.61122173       0.06343621
Ti      -0.03101698       0.04855561       3.53914274       0.19852057       0.28085780      -0.29113787
Ti       1.81965175       1.73491060       5.13401887      -0.59279382      -0.21965437      -0.11337176
Ti       0.01769521       3.24546976       0.11687465       0.25242344       0.05732796      -0.47632796
Zr       1.64350217       5.02721063       1.51579547      -0.04987797       0.57235986       0.19533452
Ti       0.03037858       3.50449586       3.35090329      -0.03844806      -0.40559071       0.22265966
Zr       1.82815023       5.15851715       4.92302951      -0.90066242       0.20276077       0.45091867
Ti       3.41317965      -0.06672860      -0.02554176      -0.21157831       0.46425071       0.40751255
Ti       5.18305986       1.82280340       1.64132032       0.14540075      -0.40349618       0.29734966
Zr       3.64853558       0.13205850       3.47038810      -0.46286911       0.29664508      -0.63156480
Zr       5.05393131       1.79689085       5.26546754       0.84549326      -0.30990633      -0.36078489
Zr       3.47355638       3.30010947      -0.09432684      -0.47983506       0.00703490       0.48025441
Zr       5.23881155       5.09062635       1.61078740       0.07635888       0.30567950       0.16197684
Zr       3.34993278       3.57640627       3.30689696       0.15890804      -0.60812527      -0.12157093
Zr       5.01436892       5.19020415       5.18385932       1.03434753      -0.04330901      -0.05008961
16
Lattice="6.82 0.0 0.0 0.0 6.82 0.0 0.0 0.0 6.82" Properties=species:S:1:pos:R:3:forces:R:3 group=TiZr_rattle10_b1 composition=TiZr energy=-130.18527221679688 pbc="T T T"
Ti       0.02442300       0.02713893       0.04784569       0.01771335      -0.24359091      -0.03636860
Ti       1.58763455       1.68591344       1.63157427       0.23767254       0.09877469      -0.01279880
Zr      -0.17601742      -0.05059127       3.47645564       0.72022933       0.34648496      -0.23746136
Zr       1.74929210       1.83958977       5.14070997       0.27031121      -0.44420478       0.21712238
Ti       0.04801243       3.42453888      -0.15425904      -0.01137564       0.25942123       0.59300792
Zr       1.64275661       5.05822948       1.68229357       0.00431088      -0.06437414      -0.31421617
Zr      -0.04198354       3.44076432       3.56326523       0.32907617      -0.18833844      -0.54920870
Ti       1.84980023       5.09319976       5.15186920      -0.23116191       0.13559961       0.17342794
Ti       3.39673929      -0.15657080       0.01330770       0.00890270       0.22191647       0.12667060
Zr       5.07512238       1.78886435       1.63682174      -0.05144027      -0.01544265      -0.03194502
Zr       3.39678321      -0.10013455       3.32412648      -0.43316558       0.41189533      -0.02480531
Zr       5.16082310       1.75529698       5.27570698      -0.46751273      -0.22078216      -0.08363890
Ti       3.44194907       3.39680572       0.01808558      -0.15158421       0.27157152       0.13325441
Ti       5.06988650       5.08478333       1.85861269       0.11645887      -0.13920614      -0.82726073
Ti       3.33661213       3.49420286       3.40314340       0.00131707      -0.37444711      -0.15253581
Zr       5.15104042       5.12419245       4.96250358      -0.35975197      -0.05527731       1.02675629
54
Lattice="10.23 0.0 0.0 0.0 10.23 0.0 0.0 0.0 10.23" Properties=species:S:1:pos:R:3:forces:R:3 group=TiZr_rattle10_b9 composition=TiZr energy=-438.3365173339844 pbc="T T T"
Ti       0.12491973      -0.19522220       0.00340664      -0.02347055       0.76799726       0.24073370
Ti       1.77470170       1.68277261       1.77077625      -0.14219765       0.15037425      -0.31993732
Ti      -0.06928221      -0.02426436       3.47040909       0.34436396       0.29724908      -0.32655215
Zr       1.68524018       1.83537647       5.18596387       0.11780925      -0.31923953       0.09057580
Zr       0.00517576      -0.14343607       6.98026635       0.23925191       0.69546151      -0.06242790
Ti       1.71219038       1.73350424       8.65635274      -0.02757132       0.10198988      -0.11484911
Zr      -0.08924498       3.41907995       0.00125877       0.35134941      -0.33106041      -0.24367675
Ti       1.51031192       4.95138732       1.89394504       1.07723856       0.49277973      -0.61955994
Zr       0.17831449       3.49139717       3.45834385      -0.05092871      -0.67897844       0.23407948
Ti       1.87906729       5.20263520       5.12852755      -0.17206037      -0.17477739       0.11913124
Ti      -0.00205933       3.51122045       6.66689587      -0.04675452      -0.09252590       0.62460017
Zr       1.68248779       5.01828308       8.54072856       0.38776875       0.03540280       0.02569846
Zr      -0.08239264       6.72875506       0.06125526       0.31945449      -0.21179390       0.12631387
Ti       1.62804605       8.42261850       1.84612713       0.32274187       0.08056115      -0.35314608
Zr       0.00987999       6.85593004       3.45421147       0.30448121       0.01630794       0.05423951
Zr       1.62023957       8.59521963       5.09593422       0.51205677      -0.13685296       0.06835148
Zr      -0.09239648       6.82254528       6.80482946      -0.03872955      -0.50508881      -0.05073252
Zr       1.63033760       8.47188819       8.60131794       0.83333743      -0.17823118      -0.09581053
Zr       3.38091173       0.02850209      -0.09674208       0.16148885      -0.09002855       0.35520828
Ti       5.12375617       1.70864597       1.55598384      -0.03800921      -0.01162693       0.03847269
Zr       3.27066788       0.01951603       3.33951089       0.25308156       0.01018277      -0.31221247
Zr       5.21373579       1.62141799       5.15516501      -0.49421516       0.31483859       0.15390603
Ti       3.39985384       0.08066400       6.85120663      -0.00022200      -0.07226241       0.15326323
Ti       5.08559231       1.65914729       8.59278593       0.19949506       0.02904213       0.05681490
Ti       3.60009642       3.57145258       0.18272813      -0.25805557      -0.22750545      -0.14929162
Ti       5.06501833       5.16216997       1.71557100      -0.19438538      -0.02124997       0.00302785
Ti       3.44498834       3.37811947       3.52255193       0.08799133       0.06756706      -0.48051113
Zr       5.15547230       5.17198194       5.11816974      -0.24990688       0.14361553       0.19905210
Zr       3.48735405       3.36180777       6.84954354      -0.10091992      -0.01694404       0.27710521
Ti       5.16813362       4.99577642       8.38826149      -0.09484448       0.44026303       0.21948828
Ti       3.38137046       6.88045074      -0.01427523       0.17959443      -0.17411211       0.17739762
Ti       5.14976123       8.40127587       1.72669668      -0.47435570       0.20034023      -0.22198272
Ti       3.34972425       6.67352016       3.46892926       0.04645641       0.22457679      -0.37925112
Zr       5.28210941       8.62551269       4.90027845      -0.92383927      -0.41390130       0.61370927
Ti       3.38608556       6.78561720       6.71093879       0.22148487       0.18381667       0.32494208
Ti       5.02438459       8.59329204       8.44488025      -0.08697109      -0.17314634       0.03247315
Ti       6.96039890      -0.32720099      -0.07277557      -0.77891624       0.87083918      -0.07693496
Zr       8.43994472       1.82453181       1.57123807       0.12135771      -0.56484419      -0.31061110
Zr       6.85845458       0.09428245       3.41292554      -0.28074098       0.09231409      -0.78968716
Zr       8.52324305       1.59039840       5.16352779       0.44976366       0.48340100       0.17664230
Zr       6.99716469       0.00944998       6.78508752      -0.56087154       0.03628308       0.83097005
Ti       8.57913190       1.76221762       8.49104645      -0.14256237       0.08580993       0.15294358
Ti       6.61071113       3.41775568      -0.05531647       0.04881065       0.01346571      -0.09794946
Zr       8.46603576       4.99385690       1.89292421      -0.23502994       0.19824311      -0.78137231
Zr       6.85578080       3.47082109       3.46538041      -0.70401508      -0.29602203      -0.36712223
Zr       8.50778849       5.06734860       5.06882804      -0.07841393       0.20136520       0.86257851
Ti       6.80251608       3.49150682       6.82469344       0.07719405      -0.30139557       0.33846021
Ti       8.38121629       4.95395929       8.59235427      -0.05666824       0.13032416      -0.29059628
Zr       6.73832906       6.83640219       0.00910820      -0.42815709      -0.36594740      -0.32585466
Zr       8.52824020       8.67400557       1.72200203       0.29756671      -0.03209025      -0.04711449
Zr       6.86470226       6.92601975       3.40775918      -0.38122898      -0.27231598      -0.22348630
Ti       8.40464761       8.55275441       4.98272584       0.45131800      -0.10034179       0.42177615
Ti       6.76775880       7.05087959       6.86714022      -0.06571826      -0.49260524       0.05926917
Zr       8.57794621       8.46108811       8.55211244      -0.27569708      -0.10952395       0.00944570
54
Lattice="10.23 0.0 0.0 0.0 10.23 0.0 0.0 0.0 10.23" Properties=species:S:1:pos:R:3:forces:R:3 group=TiZr_rattle10_b9 composition=TiZr energy=-439.34161376953125 pbc="T T T"
Zr       0.08824440       0.02013706       0.01474499      -0.38444611      -0.45874342      -0.04664346
Zr       1.64950212       1.71391697       1.79498607      -0.06481913       0.14185256       0.14716941
Ti       0.13123065       0.05220340       3.42501690      -0.29630935      -0.05911011      -0.04822640
Zr       1.68196258       1.73690595       5.13485870       0.06236126       0.16384637       0.04069765
Zr       0.03322986      -0.07148955       6.77820409       0.11711077      -0.07044978       0.14794579
Zr       1.66353188       1.69149682       8.51960675       0.50018412      -0.01108307      -0.57637608
Zr       0.02164666       3.24037416       0.00018279      -0.30179632       0.70253527       0.36415213
Ti       1.71543381       5.13071764       1.79534018       0.10310802      -0.07997382      -0.00538460
Ti       0.02090767       3.58352326       3.35534041      -0.24244153      -0.06243185       0.24444257
Ti       1.71215063       5.13064564       5.22398623      -0.05550720       0.08074263      -0.33350411
Zr       0.05518944       3.55688332       6.80044035      -0.20478991       0.12064581      -0.36096227
Zr       1.85679155       5.10895355       8.69535618      -0.22797108       0.23812820      -0.48667389
Zr       0.20063651       6.80409153      -0.06693669      -0.39209232       0.02491379       0.13982281
Ti       1.81898210       8.53893603       1.71976053      -0.07669462      -0.06204908      -0.10450493
Zr      -0.02602798       6.96787398       3.35252929       0.26333576      -0.71418452       0.10218383
Ti       1.58222368       8.55526360       5.17638874       0.38337749      -0.00474797      -0.04160910
Ti      -0.02085959       6.90477637       6.80531767       0.20583645      -0.31491888       0.16731277
Ti       1.82695306       8.57940359       8.66734084      -0.12894300      -0.09296819      -0.53765893
Zr       3.46980192       0.09606297      -0.09981732       0.23062500      -0.28229457       0.34245580
Ti       5.23511559       1.63040788       1.65128960      -0.02000103       0.12921293       0.05819872
Zr       3.42207820       0.00449687       3.32499785       0.04508543      -0.17291136       0.20074381
Zr       5.29806274       1.69074960       5.10128269      -0.61779660       0.46950108       0.34961110
Ti       3.50932548       0.03042855       6.69938313      -0.28962630       0.01095957       0.09742838
Ti       5.08414119       1.75061564       8.50949794       0.23039171       0.03066956      -0.24583291
Zr       3.49808435       3.33138265      -0.03263134       0.11797020       0.04729065       0.28724217
Zr       4.88911446       5.04254743       1.77945594       0.24506328       0.12149160      -0.04391959
Ti       3.31152741       3.20738740       3.39519449       0.26699397       0.52911478       0.17357478
Ti       5.09650681       4.98996543       5.09242345       0.09849170       0.19149207       0.09824573
Ti       3.44613225       3.62526682       6.71917619       0.09232292      -0.39837614       0.11458904
Zr       5.07491375       5.22066597       8.59085781       0.42924982      -0.05973059      -0.31317854
Ti       3.37852740       6.85433808      -0.04515926       0.12259473       0.13805240       0.40038863
Ti       4.99229823       8.45384751       1.68636657       0.20867471       0.11300103      -0.15153722
Zr       3.34870118       6.88859195       3.57994240      -0.08468342      -0.21733402      -0.23061980
Ti       5.11665056       8.53104403       5.09917210       0.03308256       0.08687084      -0.04028556
Zr       3.53349810       6.94876433       6.74345888      -0.32064623      -0.12926926       0.01915978
Zr       5.01909460       8.69961748       8.51585218       0.54089773      -0.24067181       0.15515682
Ti       6.94137524       0.09161554       0.05651974      -0.17084920      -0.21527146      -0.20732184
Ti       8.55165538       1.68904873       1.57393893      -0.17273657       0.08275153       0.49528241
Zr       6.75203189      -0.02524580       3.50504725       0.25674424       0.04532905      -0.65929055
Ti       8.58418737       1.65149832       5.06703698       0.17773584       0.41529030      -0.15638323
Zr       6.86669936       0.11583842       6.75593542      -0.10957330      -0.32502630       0.42625377
Zr       8.45339167       1.80459494       8.33169290      -0.12767363      -0.29194170       0.46499258
Ti       6.76994406       3.34349225       0.00371685       0.06800771       0.05125780       0.13028024
Ti       8.55590070       4.98302203       1.66484210      -0.17168418       0.20687062      -0.10888040
Zr       6.75150125       3.38112712       3.48343280       0.58356327       0.18721879      -0.28152484
Ti       8.53056359       5.13213314       5.19835933      -0.11609545       0.03367123      -0.09558268
Ti       6.82089128       3.47120638       7.00634468      -0.31198338       0.17204404      -0.67263454
Zr       8.41330657       5.08337538       8.53182150      -0.11085971       0.65513986       0.11466902
Ti       6.59343295       6.85971554       0.03015850       0.46942264       0.08449240       0.12733948
Zr       8.64011304       8.58920699       1.76473754      -0.36602235      -0.01263241      -0.50128162
Zr       6.78310764       6.84118275       3.31294399      -0.03762081      -0.36373726       0.04853902
Zr       8.59262892       8.50937316       5.11426940       0.04509217      -0.04654714       0.01165126
Ti       6.82709942       7.04138926       6.58713017      -0.07655440      -0.52228647       0.40619418
Ti       8.63701399       8.46011695       8.41270432      -0.41710630      -0.06569570       0.37409353
54
Lattice="10.23 0.0 0.0 0.0 10.23 0.0 0.0 0.0 10.23" Properties=species:S:1:pos:R:3:forces:R:3 group=TiZr_rattle10_b9 composition=TiZr energy=-438.2791442871094 pbc="T T T"
Ti      -0.09545852       0.01070566      -0.04490179       0.55556232       0.28611720      -0.29439363
Ti       1.72335132       1.57691567       1.84720280      -0.03649344       0.02803824      -0.47868851
Ti      -0.07051015      -0.04596388       3.36577524       0.14283302       0.20071051       0.23673870
Ti       1.58327703       1.63344819       5.11193326       0.23585626      -0.11908899       0.13218516
Ti      -0.06883732      -0.05684268       6.69606145       0.22674187       0.52992696       0.59158927
Ti       1.75473056       1.56367461       8.38343196      -0.00183584      -0.03280640       0.10017505
Ti      -0.03672879       3.41508985       0.01569716       0.14410174      -0.02582732      -0.33944327
Zr       1.70508224       5.20990816       1.76276377      -0.56810874      -0.50322366      -0.22413789
Zr      -0.03999676       3.16562495       3.33271478       0.02102053       0.24791756      -0.12259592
Zr       1.55592325       5.09066461       5.17885013       0.11162646       0.01006141      -0.16014680
Zr       0.09274208       3.53916782       6.81579348      -0.18972379      -0.82033372       0.66400504
Ti       1.88865591       5.01358235       8.34840475      -0.54833186      -0.16090456       0.50652039
Zr      -0.09527565       6.73620341      -0.17195089       0.22828212      -0.30361795      -0.09334317
Zr       1.56817088       8.57407642       1.60569114       0.09171787       0.37221128       0.09422270
Ti       0.05571558       6.85323227       3.31160337      -0.36245447      -0.16771518       0.20055366
Zr       1.54886897       8.47401284       5.31987547       0.21011332       0.25776094      -0.34436005
Ti      -0.09782289       6.79298443       6.85409417       0.28038234       0.03924422       0.37086535
Ti       1.72812989       8.51420109       8.52682547      -0.12098880       0.39721054       0.03055371
Ti       3.58406858       0.02323770       0.14452977      -0.77412939       0.52974552      -0.77996451
Ti       5.01456743       1.79690272       1.59922789       0.40135986       0.15238729       0.17488167
Zr       3.50199925       0.06515215       3.45150510      -0.33351427       0.26269555       0.17658885
Ti       5.32309965       1.74049567       5.17992825      -0.69217914       0.35528457      -0.32565075
Ti       3.40321246      -0.06761424       6.75048975      -0.11713460       0.46837801       0.28179407
Ti       5.29524433       1.64017015       8.56120446      -0.52292001       0.41532162      -0.08293268
Zr       3.29398487       3.43888650       0.02409989      -0.15984814      -0.74505174      -0.25826252
Zr       5.16116990       5.08131955       1.70764135       0.80374652      -0.18585420       0.14063352
Zr       3.52432791       3.49591901       3.47482551      -0.02888437      -0.69386649       0.17347199
Ti       5.23609493       5.18374009       5.10473891      -0.12217253      -0.41079509       0.09819575
Ti       3.45396886       3.33906275       6.56856024      -0.00387438      -0.22993565       0.37570781
Zr       4.96790922       5.17492049       8.53623949       0.52256745      -0.99548483      -0.25014859
Zr       3.42402597       6.81994856       0.16145046      -0.42020440       0.08421332      -0.58112997
Zr       4.98634994       8.60610496       1.54409259       0.51061368      -0.56460595       0.66425401
Zr       3.43251087       6.65696177       3.54240365      -0.01848131       0.53481477      -0.03015928
Zr       5.10202382       8.50182479       5.20999978      -0.33598447       0.08911818      -0.40485647
Zr       3.34994890       6.73116113       6.95422612      -0.11618316       0.24635832      -0.27124664
Zr       5.24576651       8.46324012       8.48784217      -0.58689964       0.45627856       0.09032013
Zr       6.77156674      -0.02960721       0.00830272      -0.00401676       0.55820811       0.01120817
Zr       8.59320040       1.66722980       1.58077679      -0.18993728       0.34507734       0.07692930
Zr       6.78488584      -0.08167367       3.37020460       0.15400413       0.58259428       0.03052727
Ti       8.55599198       1.86882865       5.19564547       0.04319823      -0.47054541      -0.09356768
Zr       6.68248133       0.15701897       6.63721804       0.50081122      -0.09052910       0.46371734
Ti       8.38940824       1.47714758       8.36802017       0.37365809       0.58284211       0.23277214
Ti       6.92370676       3.37373444      -0.03413897       0.02580042       0.09069861      -0.23612039
Ti       8.54753112       5.07361348       1.65761798      -0.22009389      -0.00410794       0.08756836
Ti       6.82735834       3.45075943       3.67604854       0.01658250      -0.20893830      -0.66802734
Zr       8.49408996       5.00439779       5.19517253       0.06280604       0.38797760      -0.52583545
Ti       6.87144581       3.34983110       6.73338997      -0.21617131       0.10160757       0.50675470
Ti       8.50320534       5.23780232       8.39052481      -0.22547446      -0.59721732       0.28158498
Ti       6.72018557       6.65983796      -0.17530360       0.49927908      -0.00508682       0.52777219
Zr       8.54606501       8.47166124       1.71689629      -0.08357514      -0.32846743       0.01530420
Ti       6.80930372       6.98735539       3.47112093       0.10802730      -0.45699692      -0.29324332
Zr       8.63402543       8.52522444       5.22110779       0.01034886      -0.04289186      -0.48540291
Zr       6.78581100       6.83411971       6.63954383       0.32158512      -0.29739004       0.45207977
Zr       8.44830255       8.61476818       8.66367606       0.39698920      -0.15151699      -0.44581795
16
Lattice="6.82 0.0 0.0 0.0 6.82 0.0 0.0 0.0 6.82" Properties=species:S:1:pos:R:3:forces:R:3 group=TiZr_rattle18_b2 composition=TiZr energy=-128.97206115722656 pbc="T T T"
Zr       0.06386307       0.41296218      -0.17135521       0.15021913      -0.85520440       1.53168488
Ti       2.02481545       1.67480617       1.69856399      -0.17762697       0.29998353       0.41107062
Ti      -0.14942014       0.01700686       3.40584259       0.28732044       0.06443648      -0.41538778
Zr       1.88403266       1.75466288       5.12672660      -0.18754905       0.54468262      -1.19395590
Zr      -0.10536589       3.69517795      -0.10695587       0.48959476      -1.30787528       0.90001041
Zr       1.68292590       5.05367625       1.73115091       0.29240185       0.00303103       0.45642373
Zr      -0.45889333       3.36522079       3.45568959       1.57333899      -0.09528739      -0.41438937
Zr       1.48957510       5.08977546       5.08004387       0.54739988      -0.08421850      -0.81879365
Zr       3.20388261      -0.10779909      -0.22614851       0.47122794      -0.01560465       1.23420835
Ti       4.96393293       1.78745435       1.63745290      -0.14350176      -0.41620034       0.04876790
Ti       3.52014735      -0.16465471       3.47629808       0.00536133      -0.07383255      -0.59327471
Zr       5.12512163       1.46275721       5.15237714      -0.80806720       0.77033019      -0.47895563
Ti       3.45980612       3.43309069      -0.14599577      -0.13491452       0.01342115       0.64510453
Ti       5.36705789       5.19864017       1.66726409      -0.82514805       0.48629862      -0.07328825
Ti       3.84470651       3.59644161       3.48141149      -1.46384478       0.04475001      -0.21745147
Ti       5.04206185       5.12164844       5.46749863      -0.07621206       0.62128913      -1.02177370
16
Lattice="6.82 0.0 0.0 0.0 6.82 0.0 0.0 0.0 6.82" Properties=species:S:1:pos:R:3:forces:R:3 group=TiZr_rattle18_b2 composition=TiZr energy=-129.20277404785156 pbc="T T T"
Ti       0.05983708       0.26378901       0.02394568       0.56675321      -0.71701366      -0.45665568
Ti       1.60704446       1.89604615       1.90016833      -0.04710424      -0.61979997      -0.82139069
Zr       0.21681371      -0.08028845       3.65518793      -0.52297527       0.22112097      -0.73468459
Ti       1.39144317       1.84369381       5.07542427       0.53259742       0.20265979       0.39605141
Ti      -0.22427682       3.41138612      -0.10180676       0.87023646       0.21325073      -0.01224396
Zr       1.61693746       5.13253201       1.60396479      -0.17284608       0.39335623       0.28674549
Zr      -0.31018885       3.48242088       3.21520399       0.48115146       0.01803371       0.35447985
Ti       1.75964095       5.22885258       5.30160317      -0.40801275      -0.36486161      -0.45155582
Ti       3.32123353      -0.02514231      -0.13076015      -0.48806599       0.46501943       0.52617913
Zr       5.32145619       1.68160962       1.42241170      -1.19326985      -0.42968050       1.05964160
Ti       3.31985532       0.04572755       3.47226108      -0.16031477      -0.39361471      -0.51651537
Zr       4.72822068       1.56300023       5.14062958       0.95040226       0.21049285       0.01179808
Zr       3.40101803       3.77619635       0.09385602      -0.50772917      -1.41397166      -0.15894984
Ti       5.08428711       5.30420547       1.39454435       0.39940017       0.42254120       0.88168764
Zr       3.30686087       3.13387368       3.45462450      -0.05833165       1.02344716      -0.17767283
Zr       5.17496464       5.02147840       5.11504658      -0.24189153       0.76902032      -0.18691446
16
Lattice="6.82 0.0 0.0 0.0 6.82 0.0 0.0 0.0 6.82" Properties=species:S:1:pos:R:3:forces:R:3 group=TiZr_rattle18_b2 composition=TiZr energy=-129.08663940429688 pbc="T T T"
Zr       0.12155060      -0.03082438      -0.05431152      -0.30898091       0.23152988      -0.17420024
Ti       1.62156369       1.62213809       1.56360484       0.16083615       0.27167317       0.50470912
Ti       0.04499981      -0.11704022       3.35139329       0.11743861       0.34733620      -0.06613114
Ti       1.71826113       1.84779831       5.07825252      -0.79178548      -0.53111464      -0.20023623
Zr      -0.21081135       3.27384502       0.04395897       0.58273852       0.41398117       0.31472373
Ti       1.86296315       5.46201707       1.48639326       0.03199545      -0.77807784       0.47083065
Zr       0.17740804       3.75438984       3.35790765      -0.20183420      -0.35317031      -0.55399925
Ti       1.81652898       4.89776241       5.22406121      -0.81046712       0.93039417      -0.44784170
Zr       3.64500789       0.16257286      -0.05289027      -0.87868416       0.29066539       0.57965612
Ti       4.80992612       1.85517696       1.84024990       0.79756647      -0.15960480      -0.14661494
Zr       3.43647427      -0.01398310       3.60004417      -1.11074710       0.15536246      -1.32860041
Zr       4.97995100       1.93492136       4.94183349       1.51877058      -0.48578501      -0.33112544
Zr       3.39903429       3.42161599      -0.32229886      -0.17766139      -0.17768136       2.03704453
Ti       4.98635650       5.25839086       1.57273391       0.21564281      -0.38969034       0.56400305
Ti       3.29417942       3.19757311       3.40608129      -0.54793262       1.19189703      -0.83327478
Zr       4.89578462       5.34379805       5.09406259       1.40310454      -0.95771527      -0.38894290
16
Lattice="6.82 0.0 0.0 -0.016466994155999136 6.82 0.0 0.0 0.0 6.82" Properties=species:S:1:pos:R:3:forces:R:3 group=TiZr_strain_shear_b0 composition=TiZr energy=-130.44236755371094 pbc="T T T"
Zr       0.02227743       0.02357382       0.02147340      -0.36288840      -0.02047176      -0.11112636
Ti       1.66230868       1.64655954       1.72724125       0.30636823       0.18407041       0.08025499
Ti       0.01067359       0.04431358       3.38815211      -0.23730615      -0.16820261       0.10453822
Zr       1.69447276       1.76327213       5.08542276       0.27492082      -0.09044468      -0.19856310
Zr       0.01048261       3.43973505       0.00469527      -0.31695101      -0.03694223       0.03403906
Zr       1.68949879       5.14481629       1.65626655       0.29746562      -0.06420822       0.42042720
Zr      -0.00288992       3.38839126       3.41844991      -0.26172829       0.11243518      -0.08945881
Zr       1.67485308       5.13351050       5.14664771       0.30440032       0.00708833      -0.40268767
Zr       3.41445206       0.02672130      -0.03584117       0.25208107      -0.02154334      -0.02292403
Zr       5.12080659       1.68939977       1.68555422      -0.28088981       0.04494917       0.25778487
Ti       3.43058000       0.02066289       3.41141108       0.10803971      -0.06806213       0.03002732
Ti       5.07532819       1.72297110       5.08633882      -0.06128880      -0.00571672      -0.12061384
Ti       3.43342173       3.39999176       0.00469434       0.09941971       0.04761849      -0.01186016
Ti       5.03287521       5.14727117       1.69630286      -0.02812017      -0.05142558       0.19230334
Ti       3.41664494       3.38335775       3.39281986       0.10801163       0.09765909      -0.02016034
Ti       5.12057317       5.10333254       5.07663891      -0.20153441       0.03319651      -0.14198072
16
Lattice="6.82 0.0 0.0 0.0 6.82 0.0 0.15279026335070564 0.0 6.82" Properties=species:S:1:pos:R:3:forces:R:3 group=TiZr_strain_shear_b0 composition=TiZr energy=-130.5044403076172 pbc="T T T"
Zr      -0.01971660      -0.02962798       0.01032543      -0.04223938       0.24462534       0.10583869
Ti       1.75788852       1.67978410       1.70756976       0.07750234       0.14035107       0.18615492
Zr       0.12236222      -0.00889056       3.41647759      -0.20608658       0.09779432      -0.15844533
Ti       1.84315247       1.70404330       5.06945041       0.09445257       0.08093726      -0.11636303
Zr      -0.02904889       3.38765859      -0.02010718      -0.04327814      -0.18806097       0.14113528
Zr       1.72196345       5.11222396       1.68502793       0.14398524      -0.15552801       0.35721427
Ti       0.07694588       3.37982030       3.43065259      -0.07413089       0.00348362      -0.17657381
Zr       1.82209390       5.10170789       5.06464561       0.14858264      -0.15184517      -0.28526753
Zr       3.42518734      -0.00588017      -0.00836251       0.08230698       0.24798058       0.12609242
Ti       5.15287343       1.71974955       1.74682759      -0.06570871       0.00800971       0.11927310
Ti       3.49468394      -0.00455083       3.42122047       0.10568053       0.05018186      -0.14309587
Zr       5.26869700       1.68460449       5.04240837      -0.22324954       0.14673731      -0.21795291
Zr       3.40394479       3.46688122       0.00027948       0.10782227      -0.30090255       0.08864075
Ti       5.15157101       5.11320777       1.67843741      -0.06850711      -0.08882348       0.35538340
Ti       3.49447047       3.37569700       3.35213869       0.07732753       0.00520262       0.00584590
Ti       5.24538580       5.12830106       5.16047808      -0.11445951      -0.14014363      -0.38788027
16
Lattice="6.82 0.0 0.0 0.0 6.82 0.0 0.0 0.052939341186035 6.82" Properties=species:S:1:pos:R:3:forces:R:3 group=TiZr_strain_shear_b0 composition=TiZr energy=-130.41775512695312 pbc="T T T"
Zr       0.01225876       0.02502396       0.03139693      -0.22871570      -0.05973449      -0.00708286
Zr       1.75451222       1.76427995       1.70450203       0.12054168       0.16833284       0.25016105
Zr       0.01285838       0.00536316       3.44371343      -0.28685173       0.03329875      -0.07365419
Ti       1.75121662       1.75477048       5.08598362       0.10001171       0.06904924      -0.15693121
Zr       0.03738296       3.37266737      -0.08265473      -0.26730013       0.06820437       0.14259845
Zr       1.71325634       5.12581593       1.68963898       0.16475275      -0.22997013       0.23128186
Ti       0.01796322       3.41688824       3.44324433      -0.23388258       0.05139207      -0.11800203
Zr       1.74991004       5.14242170       5.07264732       0.21299011      -0.17893037      -0.19162282
Zr       3.39282300      -0.01906860       0.00741480       0.30745056       0.02107567      -0.01722568
Ti       5.13899215       1.69401604       1.70006862      -0.18344998       0.25915712       0.19982181
Ti       3.37913410       0.06056232       3.37309649       0.32681024      -0.09653392       0.04478704
Zr       5.11346010       1.76153943       5.15223359      -0.29403150       0.17458218      -0.36243373
Ti       3.38257387       3.37856362      -0.04454727       0.28901383       0.10330787       0.08108343
Ti       5.10235148       5.09030157       1.67433069      -0.10934451      -0.16952083       0.20638786
Ti       3.36076960       3.45973081       3.37708539       0.38470158      -0.02195643       0.04174156
Ti       5.17145272       5.17335291       5.17295483      -0.30269596      -0.19175395      -0.27091059
16
Lattice="7.052065933442676 0.0 0.0 0.0 7.052065933442676 0.0 0.0 0.0 7.052065933442676" Properties=species:S:1:pos:R:3:forces:R:3 group=TiZr_strain_vol_b0 composition=TiZr energy=-129.80812072753906 pbc="T T T"
Zr      -0.02689482      -0.06191997       0.06182361      -0.30800226       0.29884028      -0.34659505
Zr       1.78165138       1.72535256       1.74006303      -0.05308765       0.33174706       0.28645614
Ti      -0.03966457      -0.00120869       3.51471028      -0.12754305       0.15874253       0.19011085
Ti       1.77901386       1.72089651       5.23677112      -0.05618218       0.19810787      -0.07384761
Zr       0.03368819       3.48138000       0.02597604      -0.25886294      -0.15406528      -0.25782895
Zr       1.74355005       5.38324973       1.74576045       0.00706570      -0.43219426       0.28398043
Ti       0.04343915       3.49737886       3.47463040      -0.15662944      -0.11548372       0.20377645
Zr       1.76000013       5.30560528       5.31616690      -0.03786204      -0.24553549      -0.26207596
Zr       3.42771176       0.03212180       0.03070549       0.46125716       0.16566513      -0.33669707
Ti       5.28525913       1.77579814       1.75251436      -0.01651949       0.12580407       0.15671484
Zr       3.53809022      -0.00091568       3.53292545       0.25768703       0.19691437       0.26553583
Ti       5.27803790       1.81655512       5.25324213      -0.00336561       0.13702662      -0.10325494
Ti       3.50895514       3.49143971      -0.00375072       0.17095079      -0.08740154      -0.15465218
Zr       5.25858918       5.27667014       1.82894430       0.02181977      -0.24987969       0.09537406
Ti       3.47834428       3.56504839       3.50864207       0.14607546      -0.18397236       0.17946839
Ti       5.31903674       5.25544666       5.29498538      -0.04680138      -0.14431569      -0.12646517
16
Lattice="6.894304764577391 0.0 0.0 0.0 6.894304764577391 0.0 0.0 0.0 6.894304764577391" Properties=species:S:1:pos:R:3:forces:R:3 group=TiZr_strain_vol_b0 composition=TiZr energy=-130.48745727539062 pbc="T T T"
Zr       0.00952468      -0.02956952       0.02196760      -0.04825282      -0.16805707      -0.14202750
Zr       1.66949310       1.70068876       1.71650839       0.34129438       0.05511994       0.27520975
Zr       0.01162921      -0.00656838       3.42768109      -0.01368143      -0.22216956       0.13618688
Zr       1.75500688       1.72627901       5.20487374       0.21506236       0.00278072      -0.31748569
Zr       0.03203792       3.48108500       0.05938606      -0.06925943       0.13433324      -0.15135276
Ti       1.69517906       5.18075545       1.66391157       0.28414285      -0.03564839       0.29672211
Ti       0.05153805       3.46253251       3.46442550      -0.06049158       0.13986145       0.04966708
Ti       1.77084287       5.18969855       5.18777302       0.15054165      -0.04250359      -0.21868423
Ti       3.46339317      -0.01248432       0.01987559      -0.02660342      -0.14622343      -0.04982468
Ti       5.15625429       1.69740271       1.70405417      -0.10112879       0.05475945       0.22617450
Ti       3.42272969      -0.02078547       3.39327111       0.02199635      -0.11202687       0.11723174
Zr       5.19313982       1.69632089       5.20882590      -0.23588063       0.03716636      -0.33721909
Zr       3.49345120       3.45224632      -0.00726952      -0.05870305       0.18990164      -0.00305756
Zr       5.16590205       5.17529576       1.74749497      -0.21981457      -0.03146029       0.25506607
Ti       3.45824003       3.44820213       3.40327605      -0.04951969       0.12372243       0.10800511
Ti       5.15718510       5.15631535       5.18747764      -0.12970233       0.02044394      -0.24461168
16
Lattice="6.446133761230744 0.0 0.0 0.0 6.446133761230744 0.0 0.0 0.0 6.446133761230744" Properties=species:S:1:pos:R:3:forces:R:3 group=TiZr_strain_vol_b0 composition=TiZr energy=-127.12509155273438 pbc="T T T"
Ti      -0.02649576       0.00570686       0.00299074      -0.05703116       0.00485461       0.17665315
Zr       1.63185363       1.62601934       1.67244210      -0.15467943      -0.38638461      -0.43137223
Ti      -0.01999865      -0.00807173       3.27668023      -0.17937228       0.05119064      -0.21478561
Zr       1.60302821       1.64115809       4.81209153       0.17087251      -0.31017846       0.25601545
Zr       0.00001762       3.26074727      -0.04864278      -0.19519615      -0.00840378       0.23990178
Zr       1.63232724       4.84882128       1.60881503      -0.29551041       0.27313590       0.04696041
Ti      -0.02268218       3.19317745       3.19340875      -0.18333554       0.14549845       0.02239953
Zr       1.61193326       4.88187916       4.84176153       0.00866818       0.08949178      -0.14291441
Ti       3.25046186      -0.02707221      -0.01972189       0.06893569       0.15967138       0.02615512
Ti       4.77988404       1.59896777       1.61703642       0.25041458      -0.24319623      -0.05103704
Ti       3.22225756       0.00029483       3.20414282       0.19517946       0.08764249       0.23141526
Zr       4.85948819       1.61995089       4.90489122      -0.21280885      -0.24103263      -0.21246846
Ti       3.22643587       3.26010485      -0.00933617       0.14607611      -0.05765891      -0.04040852
Zr       4.79541964       4.85778015       1.65747451       0.30980867       0.16784874      -0.15693668
Zr       3.24393577       3.19621687       3.20317471       0.13978675       0.10667670       0.18828905
Ti       4.82231582       4.86510027       4.79693797      -0.01180794       0.16084370       0.06213328
16
Lattice="6.5 0.0 0.0 0.0 6.5 0.0 0.0 0.0 6.5" Properties=species:S:1:pos:R:3:forces:R:3 group=Ti_md1400_b1 composition=Ti energy=-124.80532836914062 pbc="T T T"
Ti       0.00000000       0.00000000       0.00000000       0.00000012       0.00000019       0.00000001
Ti       1.62500000       1.62500000       1.62500000      -0.00000015      -0.00000013      -0.00000008
Ti       0.00000000       0.00000000       3.25000000      -0.00000000       0.00000012      -0.00000004
Ti       1.62500000       1.62500000       4.87500000      -0.00000010      -0.00000007       0.00000004
Ti       0.00000000       3.25000000       0.00000000      -0.00000004      -0.00000014       0.00000005
Ti       1.62500000       4.87500000       1.62500000      -0.00000001       0.00000003       0.00000003
Ti       0.00000000       3.25000000       3.25000000      -0.00000003      -0.00000012      -0.00000004
Ti       1.62500000       4.87500000       4.87500000       0.00000001       0.00000002       0.00000006
Ti       3.25000000       0.00000000       0.00000000       0.00000003       0.00000013      -0.00000001
Ti       4.87500000       1.62500000       1.62500000       0.00000007      -0.00000004       0.00000002
Ti       3.25000000       0.00000000       3.25000000       0.00000004       0.00000013      -0.00000000
Ti       4.87500000       1.62500000       4.87500000       0.00000004      -0.00000007       0.00000003
Ti       3.25000000       3.25000000       0.00000000      -0.00000001      -0.00000004      -0.00000003
Ti       4.87500000       4.87500000       1.62500000       0.00000009       0.00000000      -0.00000003
Ti       3.25000000       3.25000000       3.25000000       0.00000000      -0.00000003       0.00000001
Ti       4.87500000       4.87500000       4.87500000      -0.00000001       0.00000003      -0.00000002
16
Lattice="6.5 0.0 0.0 0.0 6.5 0.0 0.0 0.0 6.5" Properties=species:S:1:pos:R:3:forces:R:3 group=Ti_md1400_b1 composition=Ti energy=-124.27384948730469 pbc="T T T"
Ti      -0.00247560      -0.20951305       0.37334744       0.01868783       0.31416559      -0.16760285
Ti       1.56144587       1.59185239       1.87855788      -0.06538298       0.42382327      -0.34735849
Ti       0.28218754       0.10358452       3.46454902      -0.54450548      -0.18256429      -0.07862999
Ti       1.67236977       1.72948879       4.91700583       0.12629682      -0.16469361       0.24475840
Ti      -0.03166629       3.01322224       0.07054261       0.00182021       0.24857247      -0.00205728
Ti       1.53075869       4.74084747       1.76217012       0.10700658      -0.10549565      -0.23410214
Ti       0.00798980       3.24272824       3.48057686      -0.10647608       0.03179905      -0.06616477
Ti       1.42302453       5.08318647       4.69363595       0.25845212      -0.01151082       0.42440036
Ti       3.11828877       0.11411601       0.28821590       0.14327827      -0.14255962      -0.36088976
Ti       4.94925877       1.79709895       1.88249661      -0.06398578      -0.00606774      -0.17142743
Ti       3.19203080       0.14970023       2.90770133       0.25009522      -0.23050225       0.61602974
Ti       4.88050013       1.62050399       4.95933497      -0.09140546      -0.24718884      -0.00758513
Ti       3.39803211       3.35606192      -0.26225334      -0.14743094       0.03598633       0.34318066
Ti       4.88038608       4.85486208       1.75520127      -0.00231629      -0.15073559      -0.01210747
Ti       3.12597456       3.36526639       3.48054118       0.27701011       0.02372634      -0.09600199
Ti       5.00339570       4.97145410       5.03686550      -0.16114417       0.16324520      -0.08444177
16
Lattice="6.5 0.0 0.0 0.0 6.5 0.0 0.0 0.0 6.5" Properties=species:S:1:pos:R:3:forces:R:3 group=Ti_md1400_b1 composition=Ti energy=-122.98863220214844 pbc="T T T"
Ti      -0.01212229      -0.35496114       0.65770822       0.07880615       0.93753213      -0.58197296
Ti       1.47815640       1.73277312       2.13427719       0.27672210       1.04155183      -1.33655334
Ti       0.29668534       0.20635683       3.51882149      -1.64192903      -0.18797874      -0.44134986
Ti       1.75104398       1.81433359       5.03350048       0.25754172      -0.54603481       0.55161995
Ti      -0.02280564       2.78092363       0.12916532       0.02462792       0.72820067      -0.03961941
Ti       1.42564006       4.55406235       1.89632075       0.43876800       0.11077971      -0.56063545
Ti      -0.00787027       3.23493883       3.74092287      -0.48977718       0.24906272       0.04227518
Ti       1.33124206       5.20771497       4.69553326       1.39744246      -0.55536234       1.55488718
Ti       3.03241610       0.20390865       0.44100952       0.31897196      -0.37370932      -1.23642683
Ti       4.98212671       2.00137982       2.08565840      -0.44022739      -0.41681921      -0.57536471
Ti       3.12470290       0.24089885       2.75522382       0.84325838      -0.94529963       1.81146979
Ti       4.85623595       1.50310177       5.00560274      -0.27737433      -0.40295517       0.10919188
Ti       3.55662061       3.53214558      -0.44578495      -0.46670648      -0.06532374       1.64589190
Ti       4.87461050       4.72898937       1.86204249      -0.14179911       0.04737155       0.01779139
Ti       3.16234355       3.48990094       3.65322386       0.45530033       0.10200474      -0.82690436
Ti       5.15455678       5.13664401       5.09846226      -0.63362503       0.27697945      -0.13430023
16
Lattice="6.5 0.0 0.0 0.0 6.5 0.0 0.0 0.0 6.5" Properties=species:S:1:pos:R:3:forces:R:3 group=Ti_md600_b0 composition=Ti energy=-124.80532836914062 pbc="T T T"
Ti       0.00000000       0.00000000       0.00000000       0.00000012       0.00000019       0.00000001
Ti       1.62500000       1.62500000       1.62500000      -0.00000015      -0.00000013      -0.00000008
Ti       0.00000000       0.00000000       3.25000000      -0.00000000       0.00000012      -0.00000004
Ti       1.62500000       1.62500000       4.87500000      -0.00000010      -0.00000007       0.00000004
Ti       0.00000000       3.25000000       0.00000000      -0.00000004      -0.00000014       0.00000005
Ti       1.62500000       4.87500000       1.62500000      -0.00000001       0.00000003       0.00000003
Ti       0.00000000       3.25000000       3.25000000      -0.00000003      -0.00000012      -0.00000004
Ti       1.62500000       4.87500000       4.87500000       0.00000001       0.00000002       0.00000006
Ti       3.25000000       0.00000000       0.00000000       0.00000003       0.00000013      -0.00000001
Ti       4.87500000       1.62500000       1.62500000       0.00000007      -0.00000004       0.00000002
Ti       3.25000000       0.00000000       3.25000000       0.00000004       0.00000013      -0.00000000
Ti       4.87500000       1.62500000       4.87500000       0.00000004      -0.00000007       0.00000003
Ti       3.25000000       3.25000000       0.00000000      -0.00000001      -0.00000004      -0.00000003
Ti       4.87500000       4.87500000       1.62500000       0.00000009       0.00000000      -0.00000003
Ti       3.25000000       3.25000000       3.25000000       0.00000000      -0.00000003       0.00000001
Ti       4.87500000       4.87500000       4.87500000      -0.00000001       0.00000003      -0.00000002
16
Lattice="6.5 0.0 0.0 0.0 6.5 0.0 0.0 0.0 6.5" Properties=species:S:1:pos:R:3:forces:R:3 group=Ti_md600_b0 composition=Ti energy=-124.43778991699219 pbc="T T T"
Ti      -0.11898957      -0.13672708       0.01469837       0.10280033       0.19987772       0.07682612
Ti       1.59005348       1.60088836       1.53912347       0.13722989      -0.01669713       0.11092175
Ti      -0.00318056      -0.00107360       3.11618093      -0.04107273       0.09683216       0.01590735
Ti       1.55404810       1.65410726       4.93374063       0.07841141      -0.15099126      -0.07736506
Ti       0.13037235       3.05655918       0.00301571      -0.09741037       0.21714485      -0.01659524
Ti       1.78286925       4.86261879       1.62842770      -0.23182333       0.02787333       0.01256868
Ti      -0.01842008       3.33928570       3.53597202       0.02197570      -0.06285399      -0.28453428
Ti       1.46890027       4.86868611       4.76227485       0.10403897       0.02367145       0.15864632
Ti       3.18810639      -0.13837500      -0.01091982       0.08175732       0.20844378       0.00135653
Ti       4.94903721       1.99043737       1.46135587      -0.02425427      -0.27771202       0.17077044
Ti       3.21085311      -0.03016842       3.37056601       0.04002804       0.14340806      -0.17781846
Ti       4.92860595       1.64276452       4.78381332      -0.18741202      -0.03395851       0.07909048
Ti       3.29701409       3.30824362      -0.03343221      -0.06989905      -0.05953766      -0.04189256
Ti       5.04221834       4.82995888       1.64590012      -0.13789961       0.01128479      -0.02743119
Ti       3.15258833       3.50072291       3.12354823       0.10699403      -0.23604839       0.12665918
Ti       4.80834374       5.01633748       5.01771518       0.11653575      -0.09073712      -0.12711006
16
Lattice="6.5 0.0 0.0 0.0 6.5 0.0 0.0 0.0 6.5" Properties=species:S:1:pos:R:3:forces:R:3 group=Ti_md600_b0 composition=Ti energy=-123.75077819824219 pbc="T T T"
Ti      -0.18482828      -0.18319135       0.02882936       0.42774776       0.52538711       0.15857184
Ti       1.64111663       1.60259153       1.43172986       0.32691449      -0.02690254       0.51438504
Ti      -0.08356886       0.03207044       3.06940627       0.02154848       0.29266301       0.07224690
Ti       1.52598852       1.62483215       4.97830116       0.39843264      -0.39541581      -0.43901312
Ti       0.22699569       2.95785732      -0.01371796      -0.25655058       0.78739756      -0.03751555
Ti       1.84620809       4.84654799       1.65766884      -0.73178130       0.13466273      -0.24211578
Ti      -0.05539309       3.35034391       3.69085010      -0.07889391      -0.14618817      -0.76517439
Ti       1.34963240       4.89694720       4.64785645       0.28851834       0.21491399       0.58016872
Ti       3.17270646      -0.20267037       0.00641609       0.02757567       0.54510003       0.14390135
Ti       4.96628860       2.19647862       1.44429811      -0.30655465      -1.02388906       0.48388058
Ti       3.20468108      -0.04180341       3.48312490       0.03938290       0.45659563      -0.55720431
Ti       4.92929736       1.61135422       4.69588217      -0.37492168       0.09240013       0.25345030
Ti       3.31376886       3.38772540      -0.13871953      -0.19484121      -0.25496906      -0.13166812
Ti       5.19703455       4.76148280       1.65998063      -0.30215487       0.23141405       0.00454687
Ti       3.12999163       3.73072984       3.04364355       0.37872374      -0.91439009       0.50796551
Ti       4.74748709       5.13236369       5.10578637       0.33685425      -0.51877964      -0.54642552
16
Lattice="6.5 0.0 0.0 0.0 6.5 0.0 0.0 0.0 6.5" Properties=species:S:1:pos:R:3:forces:R:3 group=Ti_rattle05_b0 composition=Ti energy=-124.73223876953125 pbc="T T T"
Ti       0.04870477      -0.04090368       0.02825046      -0.07674717       0.07906415      -0.04879642
Ti       1.65858680       1.65584666       1.65261660      -0.05543659      -0.03947694       0.00229998
Ti      -0.06104386      -0.00424884       3.31019617       0.08212817       0.02905871      -0.07312086
Ti       1.71718857       1.59100393       4.81656974      -0.12863892       0.00992947       0.10820478
Ti      -0.01907785       3.29474886       0.02010490       0.01525814      -0.08196442      -0.05227808
Ti       1.68786663       4.88480984       1.65115707      -0.07906425       0.01113047       0.02280254
Ti       0.10656613       3.25461664       3.28738195      -0.18825287      -0.01585554      -0.02263713
Ti       1.60700460       4.80647354       4.89747289       0.11472492       0.08953949      -0.02882532
Ti       3.24707000      -0.01225167       0.05731011      -0.07189585       0.00833517      -0.05598206
Ti       4.78613176       1.69570461       1.61010451       0.20447345      -0.07093703       0.01561325
Ti       3.28102780       0.05312998       3.26836272      -0.01415474      -0.07743472      -0.04469209
Ti       4.81212196       1.58646063       4.86358931       0.10555174       0.06330512       0.07237701
Ti       3.26882864       3.23711889       0.00184389       0.00080303       0.03256924      -0.01264083
Ti       4.86824593       4.92076536       1.61361624      -0.00208396      -0.07065286       0.05817247
Ti       3.27126729       3.23274125       3.23395127      -0.04654482       0.04070134       0.02052359
Ti       4.77052362       4.88893859       4.86612343       0.13987958      -0.00731174       0.03897918
16
Lattice="6.5 0.0 0.0 0.0 6.5 0.0 0.0 0.0 6.5" Properties=species:S:1:pos:R:3:forces:R:3 group=Ti_rattle05_b0 composition=Ti energy=-124.7599105834961 pbc="T T T"
Ti      -0.01970030      -0.03205738       0.00339939      -0.00575971       0.10583855      -0.02489067
Ti       1.67454977       1.66139206       1.66236353      -0.07705615      -0.07099491      -0.09487548
Ti      -0.02949744       0.02292602       3.25665947       0.07131360       0.02947918      -0.06215552
Ti       1.65343628       1.65215904       4.86775830      -0.07479359      -0.06898928      -0.03337609
Ti      -0.00052395       3.28498497      -0.02235914       0.02437747      -0.05294786       0.00912146
Ti       1.58622232       4.87799809       1.53461490       0.05273779       0.02670749       0.15053384
Ti      -0.04247386       3.25358087       3.23966643       0.06641615       0.01635132      -0.05254837
Ti       1.58477281       4.85649028       4.89865753       0.00871906      -0.01853457      -0.02468120
Ti       3.28546038      -0.03129723      -0.05452121      -0.00110281       0.07701135       0.02076484
Ti       4.87681528       1.72792711       1.54427121      -0.03653803      -0.14881621       0.08095305
Ti       3.22765795      -0.01332792       3.30027123       0.02477091      -0.01087431      -0.08459745
Ti       4.88945197       1.66613512       4.80667898       0.00072046      -0.01880262       0.11925808
Ti       3.19318380       3.19509802      -0.04367181       0.08489135       0.11065160       0.00513539
Ti       4.86583499       4.91263904       1.61838542      -0.03438070      -0.06291617      -0.03826158
Ti       3.26098763       3.24137192       3.21340585      -0.03941914       0.08342753       0.00823546
Ti       4.91639557       4.84283725       4.81740586      -0.06489662       0.00340886       0.02138433
16
Lattice="6.5 0.0 0.0 0.0 6.5 0.0 0.0 0.0 6.5" Properties=species:S:1:pos:R:3:forces:R:3 group=Ti_rattle05_b0 composition=Ti energy=-124.71878051757812 pbc="T T T"
Ti       0.06778756       0.00602864       0.00255018       0.00070059      -0.10057162       0.00691185
Ti       1.59667523       1.59196061       1.63655160       0.07559419       0.02944711       0.02295934
Ti       0.09603405       0.03604493       3.13758727      -0.11125538      -0.03437127       0.14075387
Ti       1.59185509       1.67816667       4.84902959       0.08501728      -0.05742547       0.09879017
Ti       0.01371478       3.22762904      -0.03833678      -0.03764364       0.11356455       0.04089388
Ti       1.60814922       4.85478552       1.78104384       0.03898169       0.03547568      -0.17336911
Ti       0.01070602       3.14398469       3.31128055      -0.03076436       0.11356001      -0.05557544
Ti       1.58918128       4.84280948       4.85234266       0.12972589       0.00481070       0.01502968
Ti       3.28167688       0.01797028       0.02090742      -0.09372124      -0.03236751      -0.05837550
Ti       4.94658868       1.60081410       1.61640913       0.00100412      -0.00770712      -0.02854293
Ti       3.34800871       0.05597234       3.33012056      -0.13148734      -0.03003195      -0.04899549
Ti       4.92471804       1.64380393       4.91870636      -0.03237309      -0.03235237      -0.04801494
Ti       3.30279067       3.17767368       0.12046103      -0.11777744       0.12567072      -0.08216728
Ti       4.89447655       4.91432649       1.62211954       0.01780231      -0.07338313       0.07493298
Ti       3.21746628       3.21215600       3.22522133       0.09994284      -0.03940673      -0.00627260
Ti       4.81479547       4.88344895       4.80580809       0.10625355      -0.01491162       0.10104154
16
Lattice="6.5 0.0 0.0 0.0 6.5 0.0 0.0 0.0 6.5" Properties=species:S:1:pos:R:3:forces:R:3 group=Ti_rattle10_b1 composition=Ti energy=-124.52862548828125 pbc="T T T"
Ti      -0.13158083      -0.00218060       0.18955907      -0.00379121      -0.01005299      -0.26520112
Ti       1.58707168       1.35307210       1.58400125      -0.07492162       0.26648751      -0.02203111
Ti      -0.05347742       0.04195692       3.26578638      -0.05592404      -0.12032937       0.04357879
Ti       1.62786684       1.63885223       4.76801642      -0.12548725       0.04922999       0.20202784
Ti      -0.01062401       3.36561626      -0.09169273       0.06364679      -0.19493420       0.09158320
Ti       1.58400789       4.94379983       1.59214619      -0.02155492       0.04480903       0.05834475
Ti      -0.13896098       3.49172052       2.97525580       0.14710316      -0.15805396       0.16178694
Ti       1.66511698       4.94378024       4.95204065      -0.11195829      -0.04030031      -0.11447717
Ti       3.22225285      -0.18655107       0.03863591       0.13479650       0.21894856      -0.13787520
Ti       4.87192355       1.64602666       1.64081692      -0.05013360      -0.03101181      -0.04018959
Ti       3.14095142       0.10241660       3.33497865       0.17299391      -0.11143827      -0.02802167
Ti       4.87195832       1.63046141       4.87913755      -0.06320544       0.13386901       0.00053611
Ti       3.16569418       3.29114826       0.15045105      -0.03482659      -0.16797797      -0.16713211
Ti       4.77169247       4.81361052       1.58663603       0.00373506       0.04207830       0.15173532
Ti       3.04310055       3.22529629       3.09568670       0.11788487      -0.02661062       0.13183472
Ti       4.85889624       4.73036957       4.88378706      -0.09835735       0.10528715      -0.06649972
16
Lattice="6.5 0.0 0.0 0.0 6.5 0.0 0.0 0.0 6.5" Properties=species:S:1:pos:R:3:forces:R:3 group=Ti_rattle10_b1 composition=Ti energy=-124.60633087158203 pbc="T T T"
Ti       0.07560372       0.06277935      -0.06395775       0.01449821      -0.03808333       0.10023437
Ti       1.80565673       1.73895823       1.70850787      -0.13892099      -0.08531619      -0.02110633
Ti       0.02836890       0.08426358       3.17741672      -0.00009894      -0.04120504       0.05982616
Ti       1.73244498       1.57448698       4.85509811       0.08160276       0.05313745       0.01600892
Ti       0.02699559       3.17703560      -0.02916159       0.05957330       0.02860060       0.00962925
Ti       1.62211919       4.92136436       1.56895550      -0.00162093      -0.07272100       0.09597289
Ti       0.03990390       3.16580118       3.26022675      -0.04880156       0.13826922      -0.05986622
Ti       1.55120124       4.84163958       4.84032588       0.10777469       0.14462599      -0.01717430
Ti       3.27262007      -0.02147992       0.22112543      -0.03853997       0.00702316      -0.26567173
Ti       4.94974410       1.57702799       1.67450673      -0.02069919       0.15363945      -0.11545045
Ti       3.56620771       0.23710444       3.22362113      -0.18418582      -0.19370478      -0.01614197
Ti       4.91451211       1.72117244       5.00852069      -0.07226378      -0.06187093      -0.03507088
Ti       3.20565663       3.25842021       0.07250388       0.03094482       0.04447769      -0.07030992
Ti       4.80119496       4.83809082       1.48779696       0.20005131       0.06548593       0.09090225
Ti       3.31326103       3.34619238       3.21747647      -0.00607135      -0.05238156       0.09950376
Ti       4.89297138       4.94148037       4.81580879       0.01675745      -0.08997674       0.12871422
16
Lattice="6.5 0.0 0.0 0.0 6.5 0.0 0.0 0.0 6.5" Properties=species:S:1:pos:R:3:forces:R:3 group=Ti_rattle10_b1 composition=Ti energy=-124.51130676269531 pbc="T T T"
Ti      -0.05662060       0.02676089      -0.07376749       0.03655775      -0.04966209       0.00967233
Ti       1.40622941       1.56387570       1.69000808       0.29465091       0.05881413      -0.11508305
Ti      -0.08211161       0.10380761       3.18768712      -0.00451259      -0.26402885       0.08669624
Ti       1.47793969       1.56193079       4.86771649       0.26100111       0.10288034      -0.05089730
Ti       0.05295760       3.11296096      -0.10816733       0.05128209       0.15864868       0.09217154
Ti       1.55026491       4.94586728       1.60180314       0.08464088      -0.10237549      -0.02414287
Ti      -0.11999093       3.24895948       3.18936937       0.10562285       0.07771773       0.06561280
Ti       1.65615439       4.83522189       4.80823202      -0.06424873       0.05730616       0.03386554
Ti       3.41541535      -0.02315653      -0.07815736      -0.24428937       0.05564927       0.00776136
Ti       5.01650250       1.50831830       1.54928354      -0.21024628       0.11986543       0.03652498
Ti       3.12938573      -0.00529000       3.23891143       0.20614432       0.02750996       0.01533543
Ti       4.95396765       1.76301724       4.76047738      -0.16743641      -0.12547384       0.08583534
Ti       3.25533648       3.28761546      -0.01567750      -0.10941063      -0.16501489       0.03705860
Ti       4.82700731       4.74047210       1.58572461       0.05185289       0.15098736      -0.01568208
Ti       3.50693831       3.34403361       3.21459587      -0.24497850      -0.04831984      -0.06595300
Ti       4.97736406       4.91810875       5.03949941      -0.04663025      -0.05450403      -0.19877581
54
Lattice="9.75 0.0 0.0 0.0 9.75 0.0 0.0 0.0 9.75" Properties=species:S:1:pos:R:3:forces:R:3 group=Ti_rattle10_b9 composition=Ti energy=-420.424072265625 pbc="T T T"
Ti       0.05394076       0.24315000       0.05707837      -0.00823591      -0.11775959      -0.11026928
Ti       1.50810692       1.50627671       1.66260980       0.03579237       0.19227169       0.08767887
Ti       0.02370888      -0.20425208       3.22630960      -0.09404899       0.13856182       0.04416718
Ti       1.58133321       1.48623576       4.85557839      -0.00364852       0.18289064      -0.06082222
Ti      -0.16169274       0.05747378       6.44896936       0.16870949      -0.03767750       0.10328973
Ti       1.76805818       1.76732903       8.08791357      -0.08204775      -0.14689256      -0.06449798
Ti       0.07445140       3.38106400      -0.13556625      -0.07608227      -0.11229806       0.14910729
Ti       1.48194224       4.86597091       1.60443190       0.18591265      -0.06820029      -0.01190679
Ti      -0.02849069       3.47178956       3.25413175       0.05375426      -0.19722398       0.06932634
Ti       1.66083346       4.96327295       5.07773507      -0.01011577      -0.05807836      -0.25939015
Ti       0.00075072       3.32776919       6.48781800       0.05860005      -0.08236952       0.05086213
Ti       1.80918451       4.91172121       8.09661523      -0.15136221       0.06333003       0.01028037
Ti      -0.09693881       6.54040907       0.07076974       0.06687438      -0.07993998      -0.09467335
Ti       1.68633400       8.23898149       1.49935074      -0.00650491      -0.10318413      -0.04278568
Ti       0.11202788       6.59970094       3.10892459       0.02649552      -0.12484950       0.07591675
Ti       1.59916692       8.15523374       4.90242588       0.06802247      -0.05438494       0.06864236
Ti       0.04599871       6.36974215       6.37252052      -0.00525291       0.14412016       0.25466782
Ti       1.71366533       8.21720245       8.15144927      -0.19110708      -0.09363445      -0.09271217
Ti       3.25845859       0.01418319       0.02981971       0.04676329       0.02624305      -0.13034774
Ti       4.77384564       1.58312898       1.74468597       0.10827000       0.02492209      -0.13719837
Ti       3.37486954      -0.17847439       3.21692021      -0.18799505       0.07537401       0.10854490
Ti       4.83485717       1.72234656       4.70209555      -0.01519297      -0.05424694       0.16047287
Ti       3.19376732       0.08021505       6.41312351       0.21258199      -0.00875703       0.09849234
Ti       4.89819843       1.70098732       8.24047864      -0.11523697      -0.08789691      -0.07523796
Ti       3.22126110       3.19269300      -0.00518175      -0.01202221       0.09301834       0.11322436
Ti       4.83452623       4.86849104       1.60177770       0.00192878       0.00596507      -0.00155765
Ti       3.32671059       3.18173330       3.24888624      -0.25423881       0.15188710       0.04353891
Ti       5.09430863       4.83740549       4.88372649      -0.22417420      -0.01534862      -0.02458882
Ti       3.27437038       3.34333977       6.44493516       0.13441990      -0.09110822      -0.00862431
Ti       4.99078964       5.13230280       8.26399030      -0.09230721      -0.22001912      -0.04454794
Ti       3.18425353       6.45635189       0.01005898       0.04623795       0.11443365       0.07376989
Ti       4.91279514       8.30922229       1.71672333      -0.03304175      -0.24627972      -0.14416933
Ti       3.20706172       6.39504156       3.15422165       0.00960502       0.07035919       0.07716830
Ti       4.81597955       8.08939363       4.87899407       0.03647316      -0.00911199       0.15732551
Ti       3.30617356       6.43916507       6.36057138       0.01871643       0.12429231       0.15302835
Ti       4.98263058       8.08166762       8.13039396      -0.09431442       0.07554131      -0.07612266
Ti       6.55492390       0.01647947       0.01014705      -0.06026638       0.01240752      -0.02691466
Ti       8.12134816       1.48697004       1.65113997       0.07642336       0.15646265       0.15309194
Ti       6.40683986      -0.10909595       3.33199039       0.23698390       0.10233977       0.15551727
Ti       8.25677619       1.66526571       4.89371554      -0.13756168       0.02481309      -0.14371610
Ti       6.35543499       0.25371841       6.45058645       0.12109496      -0.22758180       0.02554004
Ti       8.10515248       1.68716982       8.16434658       0.00525476       0.00081696       0.00430633
Ti       6.48840796       3.21533816       0.20237141       0.04877083       0.04776666      -0.13203526
Ti       8.10683991       4.78291786       1.83970851       0.03443126       0.08450246      -0.14236706
Ti       6.46083275       3.28954625       3.27911898       0.10900728      -0.13564715      -0.08671682
Ti       8.01323005       4.88567539       4.93019188       0.07590187      -0.08033176      -0.03710004
Ti       6.37272897       3.18547414       6.70653052       0.02748469      -0.01108783      -0.14468101
Ti       8.10384903       4.83031071       8.08334854      -0.03509307       0.07910745       0.10824251
Ti       6.54449526       6.45179391       0.10361098       0.12100433       0.11697122       0.00029594
Ti       8.03600981       8.11121445       1.71268081      -0.00088690       0.06038310      -0.11338855
Ti       6.37916210       6.51301885       3.37763403       0.02037374       0.01779838      -0.14154249
Ti       8.30737301       7.90056867       4.85066700      -0.16560131       0.15607414       0.05133128
Ti       6.59013393       6.44165697       6.47252181       0.01690398       0.24398050       0.10089701
Ti       8.27939382       8.27638149       8.27916176      -0.11645322      -0.12272449      -0.15081210
54
Lattice="9.75 0.0 0.0 0.0 9.75 0.0 0.0 0.0 9.75" Properties=species:S:1:pos:R:3:forces:R:3 group=Ti_rattle10_b9 composition=Ti energy=-420.4078674316406 pbc="T T T"
Ti      -0.01472727      -0.18657535      -0.20158636       0.02576113       0.18203346       0.11089966
Ti       1.63177067       1.62757161       1.71571618       0.04942806      -0.04975729      -0.15686382
Ti       0.03636466       0.12547194       3.16219686      -0.06256592      -0.11576530       0.11793147
Ti       1.66489529       1.75324993       4.77524722       0.10041340      -0.07682593       0.11018377
Ti       0.12461192      -0.13433651       6.50278462      -0.14081854       0.13557781      -0.13443066
Ti       1.56921589       1.68722958       8.12443852       0.09737726      -0.09265227      -0.02901769
Ti       0.08347790       3.31069160      -0.03029372      -0.05449112      -0.01361091       0.01212988
Ti       1.45460847       4.77297978       1.65702623       0.21804354       0.10687728       0.00742230
Ti      -0.04467296       3.21478173       3.19900356      -0.02112563       0.05626604       0.03251984
Ti       1.41251803       5.00292466       4.80683144       0.27666944      -0.02436029       0.01132159
Ti       0.12425274       3.44102468       6.52125354      -0.02220487      -0.09649438       0.01139887
Ti       1.69819542       4.95635439       8.19434116       0.09151695      -0.04730794      -0.12861931
Ti       0.04934937       6.47483780       0.04514026       0.00593344       0.13134907      -0.06741974
Ti       1.61212715       8.16379362       1.64874626       0.05607281       0.06011134      -0.01445353
Ti      -0.03938150       6.48199384       3.16831581      -0.04233707      -0.02929796       0.04714801
Ti       1.53021868       8.15557260       4.63310776       0.05767674      -0.08618837       0.22663596
Ti      -0.17285005       6.52347255       6.47652082       0.21677858       0.01107863       0.02250057
Ti       1.65279423       8.20300346       8.13810328       0.05080967      -0.19892538      -0.13355005
Ti       3.31660850      -0.08385027      -0.13415556      -0.09161966       0.09951729       0.05552724
Ti       4.87161076       1.66905561       1.54242926       0.06451296      -0.12104413       0.00859988
Ti       3.34687824      -0.08471864       3.13694919       0.03559907       0.11382614       0.18725409
Ti       4.92997100       1.62415743       5.05197341      -0.07787630       0.06149115      -0.16709086
Ti       3.30468376      -0.01173036       6.39114198      -0.13165817       0.00993184       0.06112073
Ti       5.03113216       1.55163363       8.15886960      -0.07678658       0.01847320      -0.05089031
Ti       3.34162150       3.20901498       0.13349853      -0.20002306      -0.04588626      -0.20035148
Ti       4.80978489       4.76753154       1.55342233       0.15643269       0.14237921      -0.00414441
Ti       3.40413977       3.36680969       3.10894594      -0.13394921      -0.09109785       0.20474128
Ti       4.84498346       4.88891192       4.76315072       0.02049203      -0.09579083       0.20720732
Ti       3.39632192       3.14465870       6.62075852      -0.18514234       0.11153688      -0.14478838
Ti       4.85615645       4.69124489       8.12684986       0.02356934       0.21894526       0.01970897
Ti       3.21337604       6.56160328      -0.01099847       0.05640953      -0.04913271       0.08922873
Ti       4.95555155       8.35245931       1.53113833       0.01591225      -0.15480000       0.04744767
Ti       3.35082160       6.60465098       3.26894167      -0.08600871      -0.08104154      -0.10404915
Ti       5.09078072       8.12186241       4.87205181      -0.21257178       0.01661637      -0.00630597
Ti       3.33286454       6.56388170       6.48528543      -0.15362427      -0.02635185      -0.10396541
Ti       4.81309582       7.84279301       7.98117074      -0.02126230       0.16565034       0.07847361
Ti       6.64738776       0.05691291       0.08879482      -0.03328599       0.01210258      -0.19591092
Ti       8.29950565       1.50471867       1.57107695      -0.09893046       0.08944050      -0.00612137
Ti       6.51265533       0.15331112       3.41518112       0.04261748       0.01386130      -0.17928305
Ti       8.15672480       1.72139892       4.73274368       0.10654574      -0.11865979       0.25106132
Ti       6.39351069      -0.13447326       6.60043529       0.20258711       0.12107773      -0.06880239
Ti       8.24706836       1.78447896       8.09031244       0.04009973      -0.25213587      -0.08697534
Ti       6.64689313       3.13779449      -0.12212385      -0.01246398       0.06947940       0.22288212
Ti       8.20697609       4.99448528       1.58567480      -0.17779213      -0.11859251       0.01408971
Ti       6.51983762       3.23351635       3.23780693      -0.02323030      -0.03345032      -0.09766508
Ti       8.03783986       4.71487244       4.93217692       0.04922932       0.18803872      -0.09815009
Ti       6.62939692       3.19080009       6.48200636      -0.10552680       0.05086209       0.04922935
Ti       8.03142361       4.98018327       8.24004850       0.05417726      -0.06980430      -0.09861652
Ti       6.46380815       6.55702469       0.02635489      -0.13146535      -0.05153417       0.06105824
Ti       8.06092143       8.15045399       1.62628735       0.03131526      -0.00967825       0.10686710
Ti       6.34733807       6.49165963       3.22256202       0.07385298      -0.09602758      -0.15467772
Ti       8.09209847       7.95643736       4.74830143       0.08897430       0.25492856       0.04562814
Ti       6.49597167       6.53962155       6.44814970       0.01211700      -0.14081851       0.05612951
Ti       8.09825906       8.12150928       8.16761497      -0.02416456      -0.05441970      -0.04420372
54
Lattice="9.75 0.0 0.0 0.0 9.75 0.0 0.0 0.0 9.75" Properties=species:S:1:pos:R:3:forces:R:3 group=Ti_rattle10_b9 composition=Ti energy=-420.2792053222656 pbc="T T T"
Ti      -0.05638548       0.10152209      -0.07512117      -0.10059316      -0.19163334       0.03390631
Ti       1.60930859       1.47900755       1.38283849       0.01783679       0.12498624       0.23757847
Ti       0.13187562      -0.09797813       3.26592584      -0.10829733       0.07340738      -0.11460175
Ti       1.52594029       1.73063848       4.83845336       0.15495035      -0.02702869      -0.04841376
Ti       0.04348343       0.09831875       6.57449662      -0.12580025      -0.10396537      -0.14106312
Ti       1.55804545       1.53967541       8.00654593       0.11411982       0.07683200       0.14788441
Ti      -0.09834406       3.13691633      -0.03876625       0.12035246      -0.05723846       0.01982869
Ti       1.67850668       4.85173276       1.53307562      -0.12927812      -0.04663911       0.05916292
Ti      -0.16307643       3.34145189       3.17815253       0.16904171      -0.03953718       0.09210258
Ti       1.69072162       4.83903640       4.83215302      -0.18409546      -0.00533896      -0.03628363
Ti       0.07245375       3.30717443       6.45578818      -0.14208788      -0.01480320       0.01607959
Ti       1.76620507       4.73516990       8.19633465      -0.24884966       0.13443585      -0.05019182
Ti       0.02253018       6.46900502       0.11478365       0.07249394       0.07198378      -0.26413324
Ti       1.42555599       7.96664719       1.69659055       0.15267308       0.20012704      -0.14377782
Ti      -0.07881343       6.52279541       3.27092042      -0.01879255      -0.09047478       0.09938565
Ti       1.56881799       8.07377712       4.76730739       0.07179194       0.13888325       0.12924528
Ti      -0.04805211       6.57861743       6.42870887       0.06225501      -0.14194068       0.05252156
Ti       1.70502447       8.17250865       7.91527591      -0.14271319       0.00023224       0.20027155
Ti       3.28460368      -0.15545625       0.04517722      -0.03510489       0.13045946       0.01524217
Ti       5.00414193       1.78240338       1.51938720      -0.09975731      -0.11926402       0.08021931
Ti       3.19441083       0.00821944       3.27344750      -0.01274264       0.14499448      -0.07561728
Ti       4.90450123       1.59972322       5.00036113      -0.10079563      -0.00037740      -0.20597661
Ti       3.37712067       0.00786710       6.62289737      -0.12767817       0.00620455      -0.20331275
Ti       4.85297919       1.55989404       8.01695963       0.02407843       0.09572464       0.17151049
Ti       3.21841890       3.34701973       0.06331643       0.07960968      -0.24606284      -0.05772733
Ti       4.68615289       5.03629208       1.45264323       0.21239616      -0.15699118       0.10063502
Ti       3.26848792       3.33480472       3.17809646       0.06574291      -0.22870469      -0.02299569
Ti       4.72337679       5.05257584       4.87484238       0.25244829      -0.08168774       0.00182758
Ti       3.18075442       3.37238861       6.55129453       0.06656358      -0.22744808      -0.11245313
Ti       4.57500701       4.90221609       8.05154408       0.26303995      -0.00246917       0.03084416
Ti       3.17056875       6.50811268      -0.09847568      -0.04605878       0.20014818       0.06965455
Ti       4.81418420       8.18069607       1.67808937      -0.02209026      -0.13134006      -0.05144429
Ti       3.15694207       6.44250301       3.22739661       0.05552516       0.07967672      -0.01834882
Ti       4.75661145       8.05854332       4.88090447       0.22395557       0.02737356      -0.05317917
Ti       3.08272526       6.59927364       6.40427552       0.05793216      -0.03638634       0.10159726
Ti       4.93013298       8.22576858       8.20644713       0.03794573      -0.15164924      -0.13351639
Ti       6.41224551      -0.08614136       0.01068380       0.18828277       0.11481331       0.03618588
Ti       8.07547536       1.74689871       1.78418354       0.02171863      -0.21380274      -0.18404497
Ti       6.51180827      -0.11020066       3.14347145      -0.14987895       0.11049065       0.00690050
Ti       8.09366796       1.48948253       4.72009504       0.11276663       0.11878500       0.10798090
Ti       6.56632643       0.07531812       6.41578291      -0.13957784      -0.10130583       0.05184675
Ti       8.03229843       1.63537047       7.99672580       0.00787352      -0.03291822       0.05069947
Ti       6.66651214       3.30785528      -0.18218585      -0.24424866      -0.00572035       0.08515558
Ti       8.23900765       4.93845016       1.57088376      -0.15097442      -0.11247542       0.03359127
Ti       6.56781518       3.13002580       3.33859949      -0.15334265       0.27066475       0.01930387
Ti       8.06650426       4.95980450       4.96471853      -0.06059233      -0.03914301      -0.10512502
Ti       6.41607411       3.23814993       6.48454522       0.01566801       0.13642238      -0.05360257
Ti       8.14572924       4.76869146       8.30791565       0.09646515       0.04903085      -0.25007823
Ti       6.48829514       6.39487348      -0.07045536      -0.10337905       0.03476627      -0.00823403
Ti       8.09610854       7.90339309       1.52597131       0.07540068       0.30309722      -0.03966472
Ti       6.53947105       6.53265017       3.05614518      -0.12905362      -0.09402525       0.20468768
Ti       7.98392784       8.22140886       4.87632550       0.08111086      -0.11667876       0.06216612
Ti       6.59716754       6.40954397       6.64760993      -0.18843696       0.01446681      -0.11480166
Ti       8.05808531       8.03153791       8.02242061       0.09018078       0.15904361       0.17057230
16
Lattice="6.5 0.0 0.0 0.0 6.5 0.0 0.0 0.0 6.5" Properties=species:S:1:pos:R:3:forces:R:3 group=Ti_rattle18_b2 composition=Ti energy=-122.77901458740234 pbc="T T T"
Ti       0.13280998       0.06435695      -0.21821617       0.03279324      -0.76647300      -0.62283063
Ti       1.39337724       1.35965827       1.65608950       1.27733350       0.62730521       0.44816691
Ti      -0.15580905      -0.13511606       3.10477959       0.18199055      -0.08854958       0.91918141
Ti       1.79487799       1.78508660       5.01137359      -1.05258608       0.07590450      -0.75060928
Ti      -0.44376909       3.18292696       0.25868028       3.02776980       2.20687079      -2.14274478
Ti       1.50126268       4.81772948       1.74832072       0.06816058       0.45306614      -0.90934670
Ti       0.05371655       3.34427340       3.18901937      -0.38052759      -0.17368327       0.70419872
Ti       1.96639723       4.84701163       4.92509573      -1.01875055       0.15351954       0.17930478
Ti       3.03861403       0.14920859       0.00130241       0.25477809      -0.40592796       0.44732869
Ti       5.35320286       1.65211843       1.30604839      -2.99838805      -2.10079789       2.38726783
Ti       3.55363999       0.05339327       3.35799538      -0.65836191      -0.14714992      -0.79083419
Ti       4.47640951       1.54647566       4.93078807       1.47410011       0.18856055      -0.79794675
Ti       3.42173785       3.19244249      -0.14426123      -1.39555621       0.37479353       1.22980809
Ti       4.73921323       5.19335532       1.21353929      -0.05922255      -0.06726266       0.78662467
Ti       2.95822946       3.63208141       3.02963299       1.21327388      -1.14302528      -0.09901210
Ti       4.90542450       4.67792663       5.02661416       0.03319232       0.81285006      -0.98855734
16
Lattice="6.5 0.0 0.0 0.0 6.5 0.0 0.0 0.0 6.5" Properties=species:S:1:pos:R:3:forces:R:3 group=Ti_rattle18_b2 composition=Ti energy=-124.12153625488281 pbc="T T T"
Ti      -0.23584563      -0.04814648       0.07568136       0.37959656       0.26967147      -0.03244060
Ti       1.30896612       1.85642812       1.68488038       0.36355126      -0.14560394      -0.07167458
Ti       0.04807395       0.20722559       3.53845335       0.06620991      -0.12035385      -0.20398496
Ti       1.65945258       1.69969947       5.15514629       0.03410482      -0.00831079      -0.23805484
Ti      -0.08657000       3.16960785       0.00017585       0.12394205       0.11631921       0.14985719
Ti       1.69202803       4.89652476       1.36389610      -0.09167886      -0.14050661       0.18066782
Ti       0.08417789       3.35043580       3.24120810      -0.01085994      -0.04424044       0.05497116
Ti       1.38507366       4.92571907       4.92223186       0.25519490      -0.06799719      -0.13494265
Ti       3.22821284      -0.19492424      -0.23424400      -0.04955703       0.41573423       0.29419544
Ti       4.81809295       1.34138999       1.80510106      -0.06274174       0.31521732      -0.11194359
Ti       3.00007640       0.09695719       3.01167113       0.03473877      -0.08888339       0.31108662
Ti       4.95168775       1.85026519       5.00992498      -0.17116889      -0.44472843      -0.40830696
Ti       3.53678647       3.36173156      -0.28341190      -0.52615988      -0.11296463       0.53335279
Ti       5.12208405       4.87495155       1.56915829      -0.22684252       0.12130321       0.24193934
Ti       3.50298341       3.48440950       3.09648380      -0.32903528      -0.13840345       0.05822041
Ti       4.84336183       4.98715100       4.99257055       0.21070588       0.07374738      -0.62294269
16
Lattice="6.5 0.0 0.0 0.0 6.5 0.0 0.0 0.0 6.5" Properties=species:S:1:pos:R:3:forces:R:3 group=Ti_rattle18_b2 composition=Ti energy=-123.59749603271484 pbc="T T T"
Ti      -0.29370971      -0.33193625      -0.04500502       0.42589119       0.92248511       0.65044808
Ti       1.82218241       1.71056659       1.70290043      -1.49074507      -1.23184943      -1.09101081
Ti      -0.06463295      -0.06744404       3.54350058      -0.02957973       0.18191364      -0.89226234
Ti       1.78549158       1.41395156       4.71443564      -0.41986513       0.20059228       0.83138728
Ti       0.27354247       3.32323151      -0.22634417      -0.61374384      -0.78563744       0.37246910
Ti       1.90040303       4.74628672       1.50548514      -1.12942624       0.86506212       0.35685253
Ti       0.01371497       3.53356438       3.20088450      -0.12221882      -0.53960919       0.06676768
Ti       1.37177278       5.03821824       5.00933799       1.21284938      -0.20977601      -0.53351617
Ti       3.33859098      -0.12997688       0.14318915      -0.00027731       0.60602045      -0.35183543
Ti       5.08941093       1.63935416       1.63380375       0.06637708       0.06639658      -0.10346803
Ti       3.22979143      -0.02176979       3.12273194       0.15898809      -0.49346876       0.24508953
Ti       4.67938293       1.47520137       4.65522291       0.24406016       0.46612889       0.47664735
Ti       3.12087635       3.39306520       0.14513613       0.63924426      -0.66444677      -0.99338096
Ti       4.75404330       4.84075809       1.75298456       0.39897311      -0.24161011       0.10055996
Ti       2.92484917       2.92864764       3.01723917       1.32422757       1.29794073       1.45503306
Ti       4.85112883       4.80703892       5.02525122      -0.66475451      -0.44014236      -0.58978099
16
Lattice="6.5 0.0 0.0 -0.32158156843536007 6.5 0.0 0.0 0.0 6.5" Properties=species:S:1:pos:R:3:forces:R:3 group=Ti_strain_shear_b0 composition=Ti energy=-124.74833679199219 pbc="T T T"
Ti      -0.01238503      -0.00582779      -0.03008608       0.04135142       0.02165850       0.06463391
Ti       1.55811750       1.63343150       1.61378603      -0.07095900       0.00694061       0.02059912
Ti      -0.03251052      -0.06097778       3.20355583       0.07216074       0.07086983       0.10016806
Ti       1.60611189       1.65691634       4.87247967      -0.12831216      -0.03849120      -0.02043324
Ti      -0.18213983       3.23238556      -0.00410420       0.05933670      -0.01250092      -0.03991017
Ti       1.35959563       4.89113312       1.64551926       0.03597134      -0.02461700      -0.03405073
Ti      -0.18677814       3.27099340       3.25913631       0.07152393      -0.05801474       0.00361842
Ti       1.41256532       4.89083799       4.88215857      -0.05161326      -0.00128226      -0.05078076
Ti       3.21780520       0.02051502       0.01472768       0.07559706      -0.06383957       0.00656839
Ti       4.81638879       1.62232982       1.64885316      -0.04932298       0.01326809      -0.05782875
Ti       3.23631413       0.02910519       3.25897587       0.05435947      -0.04677369      -0.05272698
Ti       4.80002632       1.59346962       4.89200104      -0.01469462       0.02325027      -0.04993558
Ti       3.06536656       3.27534709      -0.03905008       0.06417660      -0.00911886       0.08410381
Ti       4.66806233       4.82099707       1.62204203      -0.09601981       0.03596413      -0.01124060
Ti       3.06051044       3.19532230       3.25631048       0.05043119       0.06874788       0.02930013
Ti       4.67523488       4.87081023       4.87096328      -0.11398667       0.01393897       0.00791497
16
Lattice="6.5 0.0 0.0 0.0 6.5 0.0 -0.053485345015906106 0.0 6.5" Properties=species:S:1:pos:R:3:forces:R:3 group=Ti_strain_shear_b0 composition=Ti energy=-124.78059387207031 pbc="T T T"
Ti       0.00427068      -0.01799189       0.01838059       0.01142358       0.00003292       0.00461463
Ti       1.62031670       1.63040668       1.58502526       0.01180319      -0.03731931       0.07273461
Ti      -0.04067840      -0.01198251       3.25836667       0.05109227       0.03996621      -0.05677552
Ti       1.62515036       1.64758655       4.86512165      -0.08561443      -0.03170502       0.06626438
Ti      -0.02737286       3.26498935       0.01454619       0.08490174       0.00438052      -0.02801996
Ti       1.63011711       4.85463413       1.65071011      -0.01195423       0.03271694      -0.04537410
Ti       0.00967062       3.24090468       3.21762761      -0.03592638       0.03541406       0.07203013
Ti       1.60237174       4.93668694       4.87653107       0.00364608      -0.10479888      -0.02066641
Ti       3.26514213      -0.01918650      -0.01144195      -0.01374724       0.03478063       0.03820653
Ti       4.85074457       1.63723579       1.64478054       0.03250920      -0.02856971      -0.04774208
Ti       3.23400255       0.01409869       3.26979974       0.04677924      -0.01226598      -0.01066900
Ti       4.91451868       1.60920363       4.93138875      -0.07636610       0.03735526      -0.09017034
Ti       3.25151205       3.20841004       0.02691633       0.03478033       0.07598981      -0.08857556
Ti       4.85916173       4.82556498       1.60323304      -0.04087847       0.03718864       0.06809029
Ti       3.23458749       3.25319242       3.26022430      -0.01891988      -0.03684693       0.02792196
Ti       4.84994979       4.90678072       4.86159294       0.00647097      -0.04631916       0.03813048
16
Lattice="6.5 0.0 0.0 -0.09793901305310632 6.5 0.0 0.0 0.0 6.5" Properties=species:S:1:pos:R:3:forces:R:3 group=Ti_strain_shear_b0 composition=Ti energy=-124.78500366210938 pbc="T T T"
Ti       0.00839101      -0.06837937       0.01729470       0.00116245       0.01209816      -0.01273903
Ti       1.60565026       1.59100267       1.60217418      -0.02632343      -0.01227792       0.05481904
Ti      -0.02049180      -0.02712354       3.25255813       0.00771306       0.02017042       0.00238390
Ti       1.57541520       1.62500719       4.85902232       0.01644545      -0.02997501       0.05557179
Ti      -0.02830657       3.22303746       0.02639938       0.01474635       0.07234909      -0.01972625
Ti       1.56579898       4.91178631       1.73744202      -0.00940833      -0.03942953      -0.11851270
Ti      -0.02348303       3.24571711       3.28651384      -0.03689926      -0.05064921      -0.07656477
Ti       1.58405853       4.86189892       4.85657902      -0.04949686      -0.00582889       0.00353230
Ti       3.24155705      -0.03060558      -0.01858682      -0.00384193      -0.02164161      -0.02513799
Ti       4.85276123       1.59676444       1.58365059      -0.02929524       0.04740731       0.03290700
Ti       3.23911443      -0.00745481       3.28171568       0.05780544       0.04829046      -0.02719287
Ti       4.85820447       1.57245539       4.87145715      -0.01840844       0.06609776       0.02116624
Ti       3.13869501       3.25182898       0.00108747       0.05007122      -0.01923805       0.00863102
Ti       4.78151550       4.83416252       1.64270183       0.01040275      -0.00295667       0.01432472
Ti       3.17482377       3.25108859       3.23233142       0.04519124      -0.06714231       0.02192786
Ti       4.81083396       4.83667185       4.84112649      -0.02986437      -0.01727400       0.06460977
16
Lattice="6.49512028050789 0.0 0.0 0.0 6.49512028050789 0.0 0.0 0.0 6.49512028050789" Properties=species:S:1:pos:R:3:forces:R:3 group=Ti_strain_vol_b0 composition=Ti energy=-124.77458953857422 pbc="T T T"
Ti      -0.07430238      -0.02775550       0.00249295       0.13267778       0.02872578      -0.06140285
Ti       1.62171244       1.63308851       1.62380991       0.01983802       0.01194419      -0.02757712
Ti      -0.01901762      -0.00323616       3.21864539      -0.01795960       0.00126128       0.03054756
Ti       1.63830779       1.62548784       4.84777069      -0.02902190       0.01229053       0.06379852
Ti       0.00423601       3.23943859       0.04299580       0.00686729      -0.01285169      -0.07684041
Ti       1.61264751       4.88246497       1.61295875      -0.00584803      -0.01259699      -0.00341642
Ti       0.00909810       3.27211076       3.19591720      -0.02494851      -0.07850856       0.01583911
Ti       1.57623568       4.84792038       4.83706522       0.01101351       0.02769425       0.01823517
Ti       3.21180396      -0.05717975       0.02231244       0.02631584       0.01408229      -0.07659581
Ti       4.90719737       1.58723721       1.56743434      -0.07654284       0.04976755       0.05001792
Ti       3.23019909      -0.00978021       3.22319148       0.02550340      -0.00490008      -0.02084384
Ti       4.86343687       1.59386233       4.89488794      -0.00612313       0.03934730      -0.03925726
Ti       3.29104160       3.31492772      -0.02013567      -0.08903299      -0.09427615       0.01267017
Ti       4.88893757       4.86477534       1.54910049      -0.03386628       0.02675593       0.10253199
Ti       3.27841312       3.27913801       3.23507734       0.01337987      -0.06714094      -0.03333560
Ti       4.86170793       4.82164795       4.81526044       0.04774766       0.05840530       0.04562884
16
Lattice="6.40108872512687 0.0 0.0 0.0 6.40108872512687 0.0 0.0 0.0 6.40108872512687" Properties=species:S:1:pos:R:3:forces:R:3 group=Ti_strain_vol_b0 composition=Ti energy=-124.5499267578125 pbc="T T T"
Ti       0.02646190       0.03672397       0.04087673      -0.05923231      -0.01567739      -0.07398952
Ti       1.66249590       1.58555206       1.56246822      -0.07516043       0.06429064       0.07878654
Ti      -0.01663926       0.01832648       3.17915802       0.05902340      -0.01334889      -0.00027506
Ti       1.58449921       1.62461394       4.84955525       0.01206243      -0.05402036      -0.09173163
Ti       0.05153848       3.23074661       0.00611629      -0.10238646      -0.07005891       0.01482511
Ti       1.58428459       4.78852883       1.53227216       0.07325475       0.02476023       0.09801445
Ti       0.03868290       3.20789571       3.21019629      -0.02547500      -0.02797444      -0.03340048
Ti       1.61516172       4.79172603       4.80662882      -0.00931323       0.09215504      -0.02647551
Ti       3.19608829       0.04856358      -0.01197585       0.01420221      -0.09902102      -0.01694597
Ti       4.77494403       1.58340955       1.61182333       0.02638802       0.10144078      -0.01392369
Ti       3.21605780       0.03167163       3.16418971      -0.06286016      -0.08836856       0.04643166
Ti       4.77008449       1.58400568       4.78470646       0.09552170       0.04912296       0.03335157
Ti       3.18810643       3.19214897      -0.01254444       0.08911081       0.02884154      -0.00962778
Ti       4.82034593       4.79698365       1.55405354      -0.01865387      -0.02544197       0.03766542
Ti       3.18913721       3.19970661       3.23602068       0.00300348       0.02142321      -0.07577514
Ti       4.82717051       4.81307732       4.78093697      -0.01948512       0.01187719       0.03306995
16
Lattice="6.126676697688471 0.0 0.0 0.0 6.126676697688471 0.0 0.0 0.0 6.126676697688471" Properties=species:S:1:pos:R:3:forces:R:3 group=Ti_strain_vol_b0 composition=Ti energy=-122.40518951416016 pbc="T T T"
Ti      -0.06139855      -0.07775042       0.00777765       0.19123702       0.18764932       0.03891828
Ti       1.54202494       1.53127558       1.57159139      -0.02971478      -0.06904022      -0.17699610
Ti       0.00159301       0.02677729       3.05358736      -0.00175986      -0.14465621       0.00617239
Ti       1.52492276       1.51648392       4.56084497      -0.01442584      -0.00500372       0.10083147
Ti       0.01928190       3.10567041      -0.06334846       0.04831132      -0.15244052       0.05354527
Ti       1.52818247       4.55130514       1.56835634      -0.00080022       0.10565674      -0.07751358
Ti       0.03011466       3.04544581       3.04074917      -0.10916141       0.07999489       0.09385035
Ti       1.59932006       4.59623998       4.60017943      -0.05426264       0.02496913      -0.06857744
Ti       3.08152776      -0.01044376      -0.02393996      -0.10535294       0.05852322       0.13030368
Ti       4.61447812       1.53902013       1.54736039      -0.00462490      -0.00386029      -0.06938580
Ti       3.08925363       0.01299151       3.06120724      -0.00154006      -0.06454358      -0.02325323
Ti       4.60444863       1.46656104       4.58344415      -0.00623041       0.13240424       0.01533360
Ti       3.05845689       3.06618324      -0.01219204      -0.01950371      -0.09182352       0.00719015
Ti       4.59864529       4.54565569       1.49186238      -0.01762633       0.02838281       0.14519016
Ti       3.07145759       3.08240508       3.01845706       0.09787531      -0.00809054       0.11156252
Ti       4.59697054       4.59374262       4.68088089       0.02757930      -0.07812180      -0.28717175
16
Lattice="6.88 0.0 0.0 0.0 6.88 0.0 0.0 0.0 6.88" Properties=species:S:1:pos:R:3:forces:R:3 group=ZrNb_md1400_b1 composition=ZrNb energy=-147.8127899169922 pbc="T T T"
Nb       0.00000000       0.00000000       0.00000000      -0.31069258       0.31069067       0.00000003
Nb       1.72000000       1.72000000       1.72000000      -0.23183483      -0.23183449      -0.00000006
Nb       0.00000000       0.00000000       3.44000000      -0.31069291       0.31069070      -0.00000057
Nb       1.72000000       1.72000000       5.16000000      -0.23183468      -0.23183420       0.00000120
Zr       0.00000000       3.44000000       0.00000000      -0.30644724      -0.30644578      -0.00000086
Zr       1.72000000       5.16000000       1.72000000      -0.22434199       0.22434378       0.00000024
Zr       0.00000000       3.44000000       3.44000000      -0.30644685      -0.30644551      -0.00000075
Zr       1.72000000       5.16000000       5.16000000      -0.22434199       0.22434278       0.00000104
Zr       3.44000000       0.00000000       0.00000000       0.30644599       0.30644432      -0.00000057
Nb       5.16000000       1.72000000       1.72000000       0.23405460      -0.23405266       0.00000013
Zr       3.44000000       0.00000000       3.44000000       0.30644611       0.30644462      -0.00000066
Nb       5.16000000       1.72000000       5.16000000       0.23405401      -0.23405275       0.00000063
Zr       3.44000000       3.44000000       0.00000000       0.30098122      -0.30098078      -0.00000036
Nb       5.16000000       5.16000000       1.72000000       0.23183480       0.23183462       0.00000030
Zr       3.44000000       3.44000000       3.44000000       0.30098197      -0.30097997       0.00000001
Nb       5.16000000       5.16000000       5.16000000       0.23183456       0.23183459       0.00000020
16
Lattice="6.88 0.0 0.0 0.0 6.88 0.0 0.0 0.0 6.88" Properties=species:S:1:pos:R:3:forces:R:3 group=ZrNb_md1400_b1 composition=ZrNb energy=-146.95965576171875 pbc="T T T"
Nb       0.14210507       0.31719267      -0.06370020      -1.25127900      -1.49219882      -0.01934653
Nb       1.64682718       1.57165053       1.54066449       0.31463325       0.62983477       1.16644454
Nb      -0.16988038      -0.01474383       3.45025784      -0.00291661       0.07317427      -0.12199008
Nb       1.65287899       1.82061789       5.00009077       0.76023966      -1.11788678       0.25051427
Zr       0.14673359       3.28475168      -0.15387811      -1.09739351       0.75473571       0.83699507
Zr       1.68336565       5.20496558       1.82943817      -0.41246927      -0.06094383      -0.03653998
Zr       0.00692902       3.25133195       3.50985486      -0.59934360       0.55909461      -0.76473916
Zr       1.68863547       5.22615435       5.35854557      -0.05152375       0.47028649      -0.90544689
Zr       3.50503816      -0.03080324       0.14577710       0.42540127       0.19930732      -0.56131780
Nb       5.11893324       1.88189313       1.62544158       0.33032471      -0.59724712       0.23442402
Zr       3.37881439       0.19705641       3.43726158       0.42377883      -0.63299203       0.14993620
Nb       5.11191639       1.58692319       5.21316668      -0.00738262       0.20801544      -0.22113729
Zr       3.36689474       3.41317565      -0.02582983       0.62565386      -0.13704915       0.05969656
Nb       5.23967884       5.10538451       1.69296748       0.24934715       0.32746148       0.02995368
Zr       3.42983476       3.41051690       3.43002043       0.28395495       0.28553104      -0.02594654
Nb       5.21619142       5.06452487       5.20183351       0.00897452       0.53087705      -0.07149979
16
Lattice="6.88 0.0 0.0 0.0 6.88 0.0 0.0 0.0 6.88" Properties=species:S:1:pos:R:3:forces:R:3 group=ZrNb_md1400_b1 composition=ZrNb energy=-146.28298950195312 pbc="T T T"
Nb       0.09150237       0.40607400      -0.16731942      -0.90346587      -1.87979245       0.52985400
Nb       1.63292196       1.51220829       1.52652292       0.26252002       0.69030976       1.00900054
Nb      -0.34842241       0.00938859       3.41336211       0.53863645      -0.04133543      -0.09436452
Nb       1.62376612       1.81166813       4.89474955       1.12016726      -1.15479660       0.78344440
Zr       0.17913487       3.28081768      -0.18463260      -0.88920683       0.67534989       0.84775782
Zr       1.57211292       5.20151393       1.90848789      -0.04019135       0.05085069      -0.26345330
Zr      -0.01873393       3.14074142       3.45079624      -0.53898716       1.03525448      -0.52197605
Zr       1.63499168       5.29734920       5.45496182       0.18978500       0.30691603      -1.32648063
Zr       3.60718136      -0.04838751       0.17780148      -0.00444406       0.00136629      -0.56031752
Nb       5.08954264       1.98275926       1.58902185       0.57645690      -0.98514903       0.25048119
Zr       3.36556749       0.26939796       3.39115316       0.44923738      -1.17319131       0.33461866
Nb       5.11094422       1.56619231       5.26639759      -0.39274022       0.52798676      -0.54402286
Zr       3.41296583       3.35792650       0.00485985       0.02631134       0.28061315      -0.19458374
Nb       5.35827846       5.07473900       1.70848469      -0.15147562       0.42019999      -0.17052729
Zr       3.49946476       3.39546790       3.42176134      -0.10982648       0.69323695       0.16087824
Nb       5.24708825       5.04368869       5.24954650      -0.13277653       0.55218041      -0.24030846
16
Lattice="6.88 0.0 0.0 0.0 6.88 0.0 0.0 0.0 6.88" Properties=species:S:1:pos:R:3:forces:R:3 group=ZrNb_md600_b0 composition=ZrNb energy=-147.72776794433594 pbc="T T T"
Zr       0.00000000       0.00000000       0.00000000       0.00419994      -0.00420003       0.30892104
Nb       1.72000000       1.72000000       1.72000000       0.28086802      -0.28086942       0.28086796
Nb       0.00000000       0.00000000       3.44000000      -0.00359330       0.00359190      -0.28115559
Zr       1.72000000       1.72000000       5.16000000       0.30417934      -0.30417949      -0.30417806
Zr       0.00000000       3.44000000       0.00000000       0.00844815       0.00844893       0.28444776
Nb       1.72000000       5.16000000       1.72000000       0.28550479       0.28550631       0.28550526
Zr       0.00000000       3.44000000       3.44000000       0.00419915       0.00419921      -0.30892146
Zr       1.72000000       5.16000000       5.16000000       0.28155112       0.28155196      -0.28155050
Nb       3.44000000       0.00000000       0.00000000       0.00359236       0.00359156       0.28115427
Zr       5.16000000       1.72000000       1.72000000      -0.30928165      -0.30928299       0.30928379
Nb       3.44000000       0.00000000       3.44000000       0.00582512       0.00582448      -0.29899007
Nb       5.16000000       1.72000000       5.16000000      -0.27983946      -0.27983904      -0.27983969
Zr       3.44000000       3.44000000       0.00000000      -0.00420010       0.00419945       0.30892032
Nb       5.16000000       5.16000000       1.72000000      -0.28086799       0.28086871       0.28086898
Nb       3.44000000       3.44000000       3.44000000       0.00359328      -0.00359160      -0.28115442
Zr       5.16000000       5.16000000       5.16000000      -0.30417886       0.30417985      -0.30417919
16
Lattice="6.88 0.0 0.0 0.0 6.88 0.0 0.0 0.0 6.88" Properties=species:S:1:pos:R:3:forces:R:3 group=ZrNb_md600_b0 composition=ZrNb energy=-147.38629150390625 pbc="T T T"
Zr      -0.00540823       0.01474218      -0.08821403       0.18038362      -0.24934575       0.43046713
Nb       1.49391939       1.73597038       1.65879905       1.06821358      -0.34225959       0.38319844
Nb       0.02118373       0.01001297       3.38068325      -0.16816139      -0.30295846      -0.14799261
Zr       1.66882609       1.65827487       5.08650055       0.50374466      -0.12656039      -0.04864763
Zr       0.01947575       3.41977158      -0.05824768      -0.13826683       0.21039405       0.27396071
Nb       1.78779565       5.18683041       1.88388329      -0.18101585       0.06986742      -0.39420030
Zr      -0.07074177       3.40996635       3.47325090      -0.06023687       0.27576542      -0.28540903
Zr       1.75335864       5.20418494       5.08691815       0.09056187      -0.01129653       0.08794346
Nb       3.59106724      -0.00711849       0.07411771      -0.95213330       0.24811114       0.11016153
Zr       5.13797627       1.65443494       1.78543442      -0.29427838       0.03385778      -0.12905672
Nb       3.51198747      -0.12114711       3.42535890      -0.38061062       0.31978601      -0.42652750
Nb       4.99114532       1.59900335       5.08254005       0.20650236       0.22528785       0.16271374
Zr       3.43841054       3.52831304       0.05270565      -0.31585795      -0.60574925       0.11710954
Nb       5.08558816       5.15501823       1.60719357       0.33303353       0.01748317       0.79204243
Nb       3.42091436       3.25740769       3.43038680      -0.12970600       0.43129393      -0.23932472
Zr       5.04307850       5.20621465       5.20567352       0.23782733      -0.19367704      -0.68643844
16
Lattice="6.88 0.0 0.0 0.0 6.88 0.0 0.0 0.0 6.88" Properties=species:S:1:pos:R:3:forces:R:3 group=ZrNb_md600_b0 composition=ZrNb energy=-146.80189514160156 pbc="T T T"
Zr       0.11184222      -0.02216104      -0.15329719      -0.38559693      -0.32083511       0.67919862
Nb       1.38508896       1.73726486       1.66647444       1.30985761      -0.35886088       0.36173952
Nb      -0.01810187      -0.02052829       3.34458036      -0.24051574      -0.29738998      -0.05104083
Zr       1.70474697       1.56280514       5.01479900       0.26346236       0.23301375       0.16004640
Zr       0.03056680       3.44181488      -0.07198859      -0.30758214       0.15993953       0.08120470
Nb       1.83761657       5.20709407       2.01640223      -0.70475221      -0.22570822      -1.13289273
Zr      -0.15625121       3.46020330       3.46951127       0.01596171       0.08967257      -0.10580320
Zr       1.83626514       5.17056626       5.01785407      -0.26704949      -0.17753565       0.44228184
Nb       3.58814514       0.03020397       0.15942960      -1.10550296       0.12929532      -0.18544941
Zr       5.07672318       1.65960694       1.82050379       0.17983335      -0.10504404      -0.60574722
Nb       3.53316170      -0.19787616       3.37801596      -0.60176396       0.89844024      -0.55238885
Nb       4.88742710       1.49105899       5.01789324       0.76040375       0.69549179       0.68459016
Zr       3.38637164       3.54879856       0.13677156      -0.40513051      -0.93415713      -0.42690927
Nb       5.00835445       5.11872898       1.58488030       0.93708599       0.09549820       0.72604644
Nb       3.37280188       3.13478257       3.38304682      -0.17484537       0.78140062      -0.03750650
Zr       4.94184701       5.24570591       5.12043516       0.72613490      -0.66322106      -0.03736998
16
Lattice="6.88 0.0 0.0 0.0 6.88 0.0 0.0 0.0 6.88" Properties=species:S:1:pos:R:3:forces:R:3 group=ZrNb_rattle05_b0 composition=ZrNb energy=-147.44895935058594 pbc="T T T"
Zr      -0.00475624       0.05585162      -0.01316877       0.52671933      -0.34278715       0.24802734
Nb       1.72987737       1.76369065       1.75525075       0.08036497      -0.48832735       0.16938590
Nb       0.03191573       0.02880200       3.44479595       0.14089432      -0.36043265      -0.16333796
Zr       1.71660584       1.75800225       5.18875408      -0.08625337      -0.20267567      -0.39178225
Zr       0.01796445       3.53130165      -0.01326778       0.16902867       0.03119189       0.32489380
Nb       1.62628676       5.18669847       1.74959448       0.32285237       0.37337914       0.21901843
Nb      -0.06037249       3.36746590       3.40117424       0.39089328       0.52037954      -0.14389354
Nb       1.64278198       5.15771255       5.15915185       0.22764935       0.23753704      -0.35640195
Nb       3.52135984       0.01399089      -0.11330761      -0.71625108      -0.41901866       0.83939660
Zr       5.25065143       1.66970672       1.71983934      -0.44677228      -0.23499073       0.39453423
Nb       3.40200234      -0.03868247       3.59424064      -0.18989702      -0.13767931      -0.86308861
Zr       5.09696017       1.74398736       5.23815275       0.24028423      -0.09465176      -0.65273488
Zr       3.41673175       3.43363862       0.00053118      -0.24320795       0.48525178       0.33111545
Nb       5.16849824       5.18384694       1.66645230      -0.16097419       0.28811812       0.44860408
Zr       3.43657147       3.45708763       3.32974221      -0.28039080       0.26186946       0.02621460
Zr       5.15987752       5.17936605       5.14440781       0.02505983       0.08283625      -0.42995104
16
Lattice="6.88 0.0 0.0 0.0 6.88 0.0 0.0 0.0 6.88" Properties=species:S:1:pos:R:3:forces:R:3 group=ZrNb_rattle05_b0 composition=ZrNb energy=-147.57177734375 pbc="T T T"
Zr       0.10020819       0.00110863      -0.00486539      -0.59622502      -0.34305215      -0.31083190
Zr       1.66637566       1.64260347       1.81434759       0.86242038       0.55002421      -0.31683335
Zr      -0.03269133       0.00755436       3.41636567      -0.41742760      -0.28616458       0.51732969
Zr       1.69607362       1.77146498       5.17528904       0.59342837      -0.04511476      -0.04922310
Zr      -0.01089520       3.48982747       0.01477602      -0.16047576       0.21536800      -0.29097575
Zr       1.76997004       5.22969993       1.77815558       0.57244039      -0.48302484      -0.17422742
Zr       0.02290493       3.44836534       3.40696775      -0.35715872       0.25917232       0.46714023
Nb       1.75347400       5.20191655       5.13525254       0.41360569      -0.11071663       0.02523090
Nb       3.41312733      -0.03182084      -0.03048313       0.44093972      -0.18227713      -0.19953708
Zr       5.14835288       1.71664576       1.68996975      -0.68303883       0.01149214       0.06132758
Nb       3.41784735       0.01117327       3.41892686       0.49483985      -0.14259544       0.43727279
Nb       5.14643591       1.68359666       5.26447278      -0.45658371       0.11335279      -0.29563239
Nb       3.41618801       3.41338719      -0.08354680       0.26018560       0.36258209       0.13913547
Nb       5.19952454       5.13427111       1.75786074      -0.68773133       0.09749839      -0.22285485
Nb       3.51165102       3.50696698       3.48719502       0.11545387      -0.01568019       0.06144162
Nb       5.13882920       5.17131704       5.14315122      -0.39467221      -0.00086426       0.15123761
16
Lattice="6.88 0.0 0.0 0.0 6.88 0.0 0.0 0.0 6.88" Properties=species:S:1:pos:R:3:forces:R:3 group=ZrNb_rattle05_b0 composition=ZrNb energy=-147.56663513183594 pbc="T T T"
Nb      -0.01731115      -0.08062734      -0.03405478       0.44880196       0.04707538       0.35866743
Nb       1.70570104       1.73461371       1.73926230       0.06291001      -0.52705497      -0.13843784
Zr       0.00178601       0.05322939       3.51313611       0.37248424      -0.67192179      -0.43023270
Nb       1.68512881       1.69244310       5.15247553       0.20668125      -0.43009466       0.23776346
Zr       0.01645076       3.43964393       0.04358399       0.43683171      -0.02593385       0.06440660
Nb       1.73848329       5.20595899       1.74731661       0.00480936       0.28521267      -0.02918898
Zr      -0.05396218       3.39237550       3.47525339       0.56452519       0.48355258      -0.22961034
Nb       1.76359069       5.07664745       5.17392519      -0.11336413       0.64252210      -0.00977642
Nb       3.38500279       0.02024666       0.06295396      -0.35176605      -0.22066946       0.06432963
Zr       5.14264566       1.71889360       1.72626760      -0.07431233      -0.63062477      -0.25831485
Nb       3.44763305      -0.02803061       3.52428772      -0.43807024      -0.24325103      -0.33707017
Zr       5.14778169       1.67642212       5.14541669      -0.18897450      -0.35416162       0.41293666
Zr       3.38180181       3.43229872      -0.03704286      -0.38975346      -0.05643427       0.35156581
Nb       5.14593300       5.06582321       1.63152842      -0.08261542       0.74611205       0.34605464
Zr       3.42418090       3.36490818       3.41678236      -0.46578616       0.33844864      -0.14761487
Zr       5.10957351       5.07849684       5.25028451       0.00759885       0.61722285      -0.25547823
16
Lattice="6.88 0.0 0.0 0.0 6.88 0.0 0.0 0.0 6.88" Properties=species:S:1:pos:R:3:forces:R:3 group=ZrNb_rattle10_b1 composition=ZrNb energy=-146.68399047851562 pbc="T T T"
Zr       0.07085038      -0.05299869       0.07079415      -0.49381930      -0.02479482       0.63124514
Nb       1.82783889       1.66689737       1.68187345      -0.99410790       0.43646365       0.76516223
Nb       0.01135567      -0.01035186       3.50860335       0.07442135      -0.14951059      -0.79167593
Nb       1.65189739       1.68433774       5.22155981       0.15180819       0.19400474      -0.82228839
Nb       0.06367750       3.24403083      -0.08087966       0.33351463       0.61054564       0.87407851
Nb       1.90818262       5.22728002       1.71607626      -1.22724640      -0.84871364       0.17227888
Nb       0.02903766       3.30045501       3.33941736       0.55533630       0.41111943      -0.29973188
Zr       1.59446049       5.31159378       5.29522647       0.56471312      -1.01405585      -0.81364423
Zr       3.44394736       0.15898600       0.08547876       0.05970192      -1.30318701      -0.95166045
Zr       5.03469774       1.67629386       1.54392740       1.36547112       0.11352491       1.39965796
Nb       3.34949921      -0.17837024       3.30081728       0.23635578       0.77435881       1.03189528
Zr       5.21912947       1.71353554       5.04560529      -0.00046694      -0.69594967      -0.32781032
Zr       3.51659494       3.35809577      -0.00369677      -0.78868699       0.79094267      -0.01297864
Nb       5.05762425       5.12724207       1.92206882       1.14327157      -0.07712173      -0.59314638
Zr       3.49475009       3.40065037       3.44901419      -0.95843500      -0.13041331       0.02685785
Zr       5.23314390       4.94942049       5.24480596      -0.02183174       0.91278625      -0.28823918
16
Lattice="6.88 0.0 0.0 0.0 6.88 0.0 0.0 0.0 6.88" Properties=species:S:1:pos:R:3:forces:R:3 group=ZrNb_rattle10_b1 composition=ZrNb energy=-145.97201538085938 pbc="T T T"
Zr      -0.08471964       0.06277875      -0.16731515       1.20915794      -0.40741491       1.96296954
Nb       1.77355608       1.93044010       1.66707427      -0.72426528      -1.78242576       0.28288952
Zr      -0.13560797       0.00757124       3.40938484       0.83623344       0.14397202      -1.34201550
Zr       1.64996408       1.80369035       5.14091028      -0.27404720      -0.16107845       0.27937359
Nb       0.04597357       3.34611135       0.08403017      -0.69854528       0.74024653      -0.26748627
Nb       1.76753387       4.93960967       1.75478909      -0.64573199       1.44190073      -0.54618734
Nb       0.08721757       3.44223024       3.29314026      -1.39008212      -0.02978326       0.35958654
Zr       1.80195245       5.17139555       5.09147698      -0.65361738      -0.28438583       0.92076141
Zr       3.39725278       0.04649335      -0.09564344      -0.24509782      -0.74295038       1.13718367
Nb       5.13717963       1.59584313       1.58751620      -0.03273633       0.77315181       0.77082688
Zr       3.41991637      -0.09066525       3.48637650       0.07180661       0.18878359      -1.10696220
Zr       5.08053130       1.61854502       5.23670873       0.10999811       1.82273662      -0.60543096
Nb       3.34942367       3.40297192       0.27178351       1.21184182       0.63035834      -1.42692494
Nb       5.16388089       5.05033081       1.66482718       0.09695588      -0.10298315       0.11136999
Zr       3.17518756       3.39117760       3.58460425       2.55120730       0.15893994      -0.43494651
Nb       5.43691981       5.36291019       5.17968930      -1.42307770      -2.38906837      -0.09500730
16
Lattice="6.88 0.0 0.0 0.0 6.88 0.0 0.0 0.0 6.88" Properties=species:S:1:pos:R:3:forces:R:3 group=ZrNb_rattle10_b1 composition=ZrNb energy=-146.59225463867188 pbc="T T T"
Nb       0.06112888       0.00606412       0.28205673      -0.29079062      -0.63187343      -0.70762008
Nb       1.66395792       1.52144350       1.69592439      -0.11548856       0.84951282       0.31465065
Nb      -0.04169508      -0.10105505       3.50676809       0.30344826      -0.15119982      -0.43564036
Zr       1.97982010       1.81661066       5.29620243      -1.65698349      -0.95388377      -0.10891329
Nb      -0.03847900       3.39137629      -0.09547552       0.11354552       0.40549058       0.65555418
Nb       1.84551602       5.17542953       1.67387136      -1.03814113      -0.36426631       0.14789334
Nb       0.21216943       3.43565524       3.59778295      -0.83724588       0.00523885      -0.99892944
Zr       1.64937745       5.12452757       5.19298818      -0.37746435       0.74852616       0.37623057
Zr       3.63678991       0.02105818       0.02474007      -0.41375709      -0.38161069       0.41947451
Zr       5.19121495       1.86842929       1.72871546       0.62099016      -0.33113396       0.35077688
Zr       3.41679217      -0.03438665       3.49906073      -0.12395018      -0.23814549      -0.70603114
Zr       5.23100112       1.52037425       5.07473534       1.02967083       0.72165453       0.23378427
Zr       3.51031566       3.47440439      -0.06111507      -0.12566447       0.01455134       0.57059628
Nb       4.98585613       5.06495644       1.68257647       1.43868327       0.20621945       0.46470898
Zr       3.38232688       3.39124421       3.47218862       0.24781677       0.26540622      -0.65028036
Nb       5.03794290       5.13104474       5.10213893       1.22533131      -0.16448663       0.07374487
54
Lattice="10.32 0.0 0.0 0.0 10.32 0.0 0.0 0.0 10.32" Properties=species:S:1:pos:R:3:forces:R:3 group=ZrNb_rattle10_b9 composition=ZrNb energy=-495.2886047363281 pbc="T T T"
Zr       0.06932451       0.01378227      -0.09445540      -0.36592165       0.08836523       1.08574426
Nb       1.98182948       1.65110434       1.82810275      -0.79446441      -0.34472030       0.31816599
Nb       0.01815338       0.10374199       3.39192548       0.14792159      -0.17921188       0.33988145
Nb       1.66432355       1.80138450       5.31944615      -0.45547956      -1.06516218      -0.77941114
Nb      -0.02329689       0.16861702       7.08805683      -0.33783188      -0.59759426      -1.28426790
Zr       1.83345229       1.59288453       8.76584441      -0.24190861       0.35648903      -0.51010942
Zr       0.10533548       3.33578142       0.11530654      -0.16359991       0.43578446      -0.37812603
Nb       1.63233578       5.16579437       1.88297308      -0.36351824       0.14262570      -0.58949322
Nb       0.12735866       3.37004928       3.36572348      -0.72494233      -0.04423296       0.53539401
Zr       1.82252740       5.08091476       5.13665136      -1.50757468       0.61074156       0.30854350
Nb       0.06284464       3.28583543       6.84067799      -0.99099684       0.43346933      -0.13301745
Zr       1.81656771       5.11402925       8.49858203      -0.87991643      -0.46596670       0.58957016
Zr      -0.01643657       6.85433013       0.05020305      -0.09147136      -0.34631658       0.02768358
Nb       1.85660831       8.69387959       1.79723053      -0.73756003      -0.29757771       0.28499478
Nb      -0.11714345       6.84211514       3.33047458       0.33076119       0.09061164       0.42837563
Zr       1.78534881       8.53973710       4.92856287      -0.86564869       0.44798264       0.40670842
Zr      -0.06251311       6.83425524       6.86612507      -0.60553968       0.25857085      -0.28544009
Zr       1.61315423       8.52486774       8.58750610       0.06395125       0.16969958      -0.14871989
Zr       3.42280839      -0.17118049       0.09049375       0.98733783       0.26202342      -0.00205995
Nb       5.26224641       1.71325240       1.75632218      -0.16923162      -0.43211365       0.13347746
Nb       3.49444963      -0.00968093       3.49432643       0.11652895       0.42245212      -0.19940919
Zr       5.23928656       1.81541359       5.23749454      -0.81060767      -0.40131989      -0.44829491
Zr       3.45291884      -0.09034407       6.88367122      -0.21462044       0.13187940      -0.15272102
Nb       5.15054015       1.72112214       8.45443214       0.65986168      -0.14898373       0.77771717
Zr       3.45540426       3.32453385       0.12412611       0.26752520       0.09914094      -0.00527160
Zr       5.15215927       5.17194826       1.71310167       0.26122895      -0.27872211       0.07444558
Zr       3.14131995       3.52957377       3.50715120       1.52431786      -1.29288387      -0.40099156
Zr       5.11261430       5.40451157       5.07745829       0.77841902      -1.12690723       0.81176567
Zr       3.35058893       3.28582283       6.95014264       0.72180939       0.41046637      -0.09051839
Nb       5.07752004       5.03130881       8.73645225       0.63758934       0.51276785      -0.86585832
Zr       3.29276862       6.76883087       0.04309983       0.53929740       0.32137907       0.11307935
Nb       5.10950955       8.51877727       1.78860088       0.71344876       0.67324114      -0.21488088
Zr       3.54500294       6.74832039       3.33821152      -0.70913130       1.01596582      -0.15328400
Zr       5.23487850       8.61937623       5.14763664      -0.00541979      -0.02073315      -0.12821105
Zr       3.35216282       6.79149730       6.98672084       0.66278195       0.32934284      -0.32488218
Nb       5.02604275       8.48472457       8.50134854       0.96015978      -0.01059329       0.69764364
Nb       6.69420517       0.07266578       0.00242898       0.10988472      -0.29438901      -0.21151571
Zr       8.59643117       1.76594921       1.66269536      -0.10207433      -0.76714659       0.07397428
Nb       6.97710352       0.08562852       3.67801131      -0.27836251      -0.83009279      -1.28487682
Nb       8.50633989       1.70459269       5.03597547       1.71014583      -0.28598043       1.14967632
Zr       6.91394473      -0.06435127       6.86231572       0.56682706      -0.08922827       0.76863748
Nb       8.63714694       1.73749812       8.50667524      -0.58042681       0.25931358       0.03027178
Zr       6.89374167       3.64618686      -0.06425452      -0.02462244      -1.16001534      -0.77869284
Zr       8.38925221       5.10160930       1.73287243       0.88147944       0.41048020       0.23872453
Zr       6.98723393       3.29436726       3.59771250      -0.58012563       1.03078103      -0.80021000
Nb       8.54273733       5.28265513       5.03134821       0.36244351      -0.47490776       0.55538034
Nb       6.88835811       3.42079452       6.69909982       0.56555474       0.69520414       1.17427814
Nb       8.73123424       5.12982861       8.50969052      -0.64256114      -0.07394117      -0.21512857
Nb       6.82101836       6.89134422       0.00016128      -0.13645083       0.43033826      -0.76324552
Zr       8.58815126       8.48986168       1.70676207      -0.44257280       0.89285845       0.42842808
Nb       6.85467432       6.93982536       3.44598666       0.37831321       0.22978503      -0.08119994
Nb       8.60495367       8.50691485       5.12936408       0.31222433       0.47480509       0.02824584
Nb       6.83721666       6.83782010       6.83513115       0.54752260      -0.09161343       0.90800929
Nb       8.65818268       8.72340022       8.87875119      -0.98475409      -0.51621038      -1.05897963
54
Lattice="10.32 0.0 0.0 0.0 10.32 0.0 0.0 0.0 10.32" Properties=species:S:1:pos:R:3:forces:R:3 group=ZrNb_rattle10_b9 composition=ZrNb energy=-495.2356872558594 pbc="T T T"
Zr       0.08813965      -0.08997160       0.29153643      -0.45130458       0.10648599      -2.27297330
Zr       1.73760151       1.60123628       1.71991153       0.29334584       1.22102499       0.11178938
Nb       0.03594797       0.02202682       3.21967632      -0.23136173       0.14176300       1.64231110
Nb       1.86253265       1.79584882       5.23628600      -0.85543215      -0.39339793       0.45723194
Nb       0.15518261       0.12621503       6.82644166       0.06550039      -0.04180600       0.62352747
Nb       1.63059255       1.87278170       8.79678209       0.03142815      -0.49675724      -1.05733776
Nb      -0.02769706       3.44686704       0.05004127       0.35085332       0.53728217      -0.67042881
Nb       1.66343676       5.10434098       1.70837512       0.06513755       0.38672996      -0.18825422
Zr       0.06929362       3.41509007       3.47601300      -0.03294849       0.29209611       0.17529228
Nb       1.56986429       5.10498899       5.32281312       0.62987584      -0.25088114      -0.68295860
Nb      -0.15837636       3.62966300       6.95815528       0.95880914      -1.15347576       0.09072329
Nb       1.72159118       5.30194005       8.63169407      -0.24708030      -0.56652987       0.39790118
Nb      -0.00407421       6.78133667      -0.02710613       0.14677989      -0.06978108      -0.29178947
Zr       1.71300365       8.66245103       1.81993201       0.08130360      -1.50026584      -0.28471497
Zr      -0.03854395       6.95886057       3.57091738      -0.35126042      -1.10361469      -0.85119045
Zr       1.65201578       8.44208663       5.28140919      -0.12057877       1.56270885      -0.50977647
Zr       0.05825761       6.80772294       6.79448731      -1.22169459       0.28284898       1.20807040
Nb       1.69330136       8.48825850       8.55498421      -0.74883550       0.90073210       0.67294812
Zr       3.36251493      -0.18371797       0.09426315       0.64251161       0.63045549      -0.97098053
Nb       5.19017944       1.68090932       1.57001251      -0.33227530       0.10364631       0.60299504
Zr       3.38433963       0.01649795       3.50964384       0.29203063       0.12420242       0.23001480
Nb       5.07353237       1.51382096       5.24205943       0.11210074       1.31252670      -0.33542302
Nb       3.48950699      -0.08283312       6.89836435      -0.89170146       0.98082250       0.52526534
Nb       5.24230725       1.60820761       8.57642481      -0.98626232       0.34437987       0.23558086
Zr       3.45556977       3.43547800      -0.02572236       0.02149710       0.27746242      -0.13308680
Zr       5.22446190       5.30331759       1.76703725      -0.35543606      -0.34284568      -0.12778933
Zr       3.47947340       3.36446539       3.53792861       0.36280209       0.44093856      -0.23375383
Nb       5.28262534       5.10684540       5.19837671      -0.45378372       0.00752145      -0.06896526
Zr       3.39148952       3.55358767       6.85360310       0.09492005      -0.39664879       0.51962721
Nb       5.03031391       5.29759941       8.56087541       0.41586149      -0.03667265       0.28620258
Nb       3.46535499       6.96095099      -0.09917254      -0.23165780      -0.33393696       0.29675418
Nb       5.07261433       8.55124641       1.84661271       0.42854708       0.06995848      -0.35376894
Zr       3.39322175       6.93676729       3.46063947       0.06103632      -1.01160419       0.06229380
Zr       5.14168185       8.51545064       5.26118841       0.35236871       0.03977600      -0.47414163
Zr       3.32479799       7.11968662       6.92997442       0.93426621      -1.61442125       0.14578184
Nb       5.04184914       8.78998738       8.58589453       0.56233466      -0.74700534       0.32336247
Zr       6.99549742      -0.02884042       0.05222567      -0.92770255      -0.24620771      -0.20141038
Zr       8.60380942       1.83823328       1.64792694       0.12412965      -0.16006640       0.64819980
Zr       6.77361328       0.12554813       3.34254158       0.02584171      -0.23646832       0.05478033
Zr       8.65597386       1.56897367       5.12452889       0.20745367       0.73798937       0.06024653
Zr       6.74343349       0.07793991       6.79770431       0.58911395      -0.54404134       0.54524940
Zr       8.48581464       1.72025631       8.62573547       1.26329970      -0.20052391      -0.23969162
Zr       6.87753141       3.35807351       0.13248395      -0.45987126       0.99684381      -0.82467222
Nb       8.66048751       5.03335775       1.57582185       0.14010015       0.84001654       0.46874201
Nb       6.99072129       3.64893356       3.41821099      -0.53469217      -0.73805594       0.35188848
Nb       8.59042087       5.02316519       5.19188755      -0.27890405       0.41771194      -0.28930613
Zr       6.87398481       3.47718223       7.01731870      -0.58092725      -0.09110919      -0.64569867
Nb       8.58144686       5.15624062       8.39688403      -0.06838121       0.57529938       1.21827900
Zr       6.93707057       6.99256853       0.04861416      -0.44926751      -0.65659589      -0.67769313
Zr       8.64450120       8.54011550       1.64922980      -0.32772291      -0.49610683       0.76537400
Nb       6.83557968       6.78294466       3.57556969       0.48774981       0.11360613      -0.26208118
Zr       8.57894241       8.65634957       5.18400253      -0.15398550      -0.14301528       0.21589635
Nb       6.70127760       6.74234266       6.86863194       0.60846210       0.44162884       0.41873372
Nb       8.42081495       8.63455705       8.60939990       0.94360650      -0.31462318      -0.70717555
54
Lattice="10.32 0.0 0.0 0.0 10.32 0.0 0.0 0.0 10.32" Properties=species:S:1:pos:R:3:forces:R:3 group=ZrNb_rattle10_b9 composition=ZrNb energy=-495.859619140625 pbc="T T T"
Nb      -0.05957758      -0.06590651       0.01792726       0.57410312       0.38017908      -0.08617237
Zr       1.83646851       1.80685827       1.93935383       0.29936138      -1.07989299      -0.94154626
Zr      -0.02583956      -0.08661131       3.47029532       0.04636562       0.27024055      -0.44175872
Nb       1.70274746       1.73012782       4.99940755       0.23261689      -0.06390546       0.80127537
Zr      -0.07109485       0.00785977       6.91778308       0.73373908       0.16683553       0.19756863
Nb       1.78241212       1.74877519       8.64748977      -0.04365481      -0.47142607      -0.12615535
Zr      -0.01717681       3.26364835       0.08404963      -0.05073106       0.07215126      -0.61556053
Zr       1.72533101       5.07691231       1.72381393       0.33648774       0.34418121      -0.02798593
Zr      -0.05057578       3.36320545       3.38064981      -0.11425328       0.03324679       0.69565248
Nb       1.63148073       5.24208690       5.23794890       0.09147526      -0.72635579      -0.28969303
Zr      -0.08371728       3.54927763       6.85205443       0.36489418      -0.75071305       0.15572108
Nb       1.80090746       5.02578685       8.56935411      -0.96420920       0.24890408       0.52690887
Nb      -0.08948032       6.79168282       0.11447852       0.67959440       0.31698278      -0.55806893
Nb       1.56244268       8.64912071       1.66465850       0.72766924       0.09696802      -0.36407962
Zr       0.12835904       6.88424782       3.47220017      -0.46258718       0.08203976      -0.34076440
Nb       1.69172913       8.52989425       5.09591252      -0.08429390       0.41982269       0.82914007
Nb      -0.07774569       6.70109800       6.83582425       0.54754603       0.52562946       0.51142001
Nb       1.62145880       8.47090070       8.53296496       0.22052512       0.05775712       0.33044359
Nb       3.47622253      -0.14247617      -0.06426849      -0.32581285       0.08989379      -0.11574109
Zr       5.27900939       1.65128281       1.76000359      -1.05767059      -0.62696010      -0.35644034
Nb       3.55613582      -0.08682272       3.53450876      -0.80952764       0.30789033      -0.79852730
Zr       5.16139062       1.69057543       5.27196424      -0.36513782       0.65424275      -0.11601958
Zr       3.57245296      -0.02474354       6.78359890      -1.77529263       0.16047835       1.11074328
Nb       5.11156719       1.65510075       8.56351994       0.04363257      -0.00403592       0.21448304
Zr       3.58082557       3.47944351      -0.03820769      -0.51502037      -0.62292033       0.01263881
Nb       5.24536159       5.09241437       1.67785338      -0.09347399       0.68535054       0.33892107
Nb       3.51072957       3.45568211       3.55908124      -0.47983325       0.00774045      -0.09877466
Zr       5.10010132       5.27090490       4.95469965       0.33569396      -0.75505483       0.38130739
Nb       3.27317305       3.44694345       6.81850812       0.02767055      -0.63126159      -0.05378124
Zr       5.06269577       5.18101838       8.48978480       0.79798752      -0.59921682       0.60265112
Zr       3.58341515       6.83835553       0.09850796      -0.68758518       0.62568808      -0.22243114
Nb       5.09213922       8.61788141       1.66408328       0.60347402      -0.02184045       0.24057850
Zr       3.39320196       6.95779371       3.60057584      -0.16575487      -0.27689701      -1.43202007
Zr       4.91101918       8.56752282       5.19750313       1.42767477      -0.46752349      -0.26465568
Zr       3.43931846       6.51860235       6.97348762      -0.95148379       1.76514101      -0.32013947
Nb       5.24362869       8.53936579       8.41479207      -0.34737867       0.14234364       1.00085270
Nb       6.83371932      -0.00950827       0.06846197      -0.07266745      -0.21515855      -0.25314647
Nb       8.52780962       1.67527463       1.73837633       0.09618443      -0.60811162      -0.09602527
Nb       6.72679278       0.09462170       3.60881437       0.73086488      -1.18627155      -0.84160721
Nb       8.60363671       1.56779202       5.11515692      -0.01939186       0.52297843       0.10865073
Zr       6.82359708      -0.02268352       6.85432934       0.58351183       0.03588617       0.46327293
Nb       8.49599171       1.65438408       8.65953374       0.16942164      -0.04463573       0.04798155
Zr       6.79909225       3.37649974       0.01876606       0.39664942      -0.05948167      -0.26504028
Zr       8.58243452       5.22060188       1.85498582      -0.40861881       0.00117907      -0.50507271
Zr       6.70071456       3.25641511       3.41155214       1.01824355       0.73753893       0.36986476
Nb       8.68907190       5.15179401       5.04850774      -0.29463002      -0.11233990      -0.07584509
Zr       6.99441558       3.58697519       6.82636531      -0.25816187      -0.92411244      -0.10170305
Zr       8.44358789       5.20551121       8.71133889       0.91578895      -0.21936154       0.29726890
Nb       6.87499043       6.93747410      -0.09946301      -0.42458019       0.18468863       0.90580165
Nb       8.62122454       8.65499803       1.52021150      -0.67473251      -0.11664060       0.84134436
Nb       6.90029911       6.77687125       3.43047711      -0.13051674       0.91871065      -0.55435437
Zr       8.65430629       8.53385119       5.09426712      -0.46736366      -0.05492544      -0.06053361
Zr       6.99053386       6.72457952       6.83437646      -0.17471363       0.72342849      -0.32090464
Zr       8.59186930       8.57974884       8.74355366       0.21790254       0.06092525      -0.33994257
16
Lattice="6.88 0.0 0.0 0.0 6.88 0.0 0.0 0.0 6.88" Properties=species:S:1:pos:R:3:forces:R:3 group=ZrNb_rattle18_b2 composition=ZrNb energy=-141.8250274658203 pbc="T T T"
Zr      -0.33134096      -0.34941267       0.08444890       3.11780763       3.03975415      -0.05416773
Nb       1.75659358       1.56411776       1.57607495      -0.05349298       0.25343522      -0.31231308
Zr       0.21046452       0.06624545       3.45168370      -3.06829262      -0.16299999      -0.98724937
Nb       1.51560570       1.46044830       5.08879542       0.78981602       2.00971127       1.45647430
Nb      -0.08209463       3.14382035       0.06231125       0.10405435       0.18377186      -1.35111654
Nb       1.68469915       5.14122119       1.65570579       0.89454114      -0.40211022      -0.17941891
Zr      -0.06010464       3.45275215       3.12304299       1.70277834      -0.85722828       2.32774472
Zr       1.64991189       5.42872007       5.15022117       0.23772323      -2.33505535       0.61469197
Zr       3.76781166      -0.06223924       0.06947512      -3.01771998       1.63962698       0.51261199
Nb       5.13002421       1.61292848       1.70684478       0.21664986      -0.10772669      -0.07782906
Nb       3.20021449      -0.00902778       3.45338883       1.70095456      -0.42278081      -0.83685625
Nb       4.67937088       2.03796615       4.82392513       6.06810856      -6.23148537       5.71317387
Zr       3.37202954       3.39866971      -0.18643701      -0.71098042       0.13964945       1.60587502
Zr       5.30796465       5.03359965       1.77009517      -2.11233759       0.28432816       0.78123099
Zr       3.67295776       3.24619676       3.41609932      -6.14640284       5.64765692      -5.17290831
Nb       5.02645995       5.38236831       5.39904619       0.27679133      -2.67854738      -4.03994274
16
Lattice="6.88 0.0 0.0 0.0 6.88 0.0 0.0 0.0 6.88" Properties=species:S:1:pos:R:3:forces:R:3 group=ZrNb_rattle18_b2 composition=ZrNb energy=-143.958740234375 pbc="T T T"
Nb       0.40416689       0.00918716       0.02520949      -1.81973481      -0.52504218       0.40513963
Nb       1.76354539       1.92410417       1.79825059       0.22586532      -1.28223789       0.79994094
Nb      -0.12701800       0.01826512       3.92599771       0.91232687      -0.66123974      -1.31688321
Zr       1.53089368       2.05466787       5.54612770       2.47738266      -2.24046612      -2.90830564
Zr       0.00232729       3.45679818      -0.08073064      -0.76052511       1.25181162       1.73322356
Zr       1.67474931       4.98806443       1.73728809       0.64118946       1.37674809       0.90289992
Nb       0.26739159       3.42470107       3.54543585      -0.97462231       0.51843500      -0.69026613
Nb       1.80528724       5.20787775       5.12561521      -0.27917862       0.21666846      -0.79677707
Zr       3.44441064      -0.05784865      -0.22629642       0.39722228       0.63475442       0.90405619
Zr       5.18463105       1.62092780       1.80323081       0.62302536      -0.29725301      -0.54216266
Nb       3.64891731       0.23792971       3.66375871      -1.45511925      -1.39584434      -0.80478430
Zr       5.17403398       1.96988844       5.06447172       0.83874959      -1.48352242       0.89989567
Zr       3.57742420       3.53195102      -0.22394974      -1.60412407      -1.05330706       1.91565061
Zr       5.14956553       4.92213594       1.48234320       0.56802827       1.69755483       2.16553426
Nb       3.65186842       3.42271518       3.47147952      -1.36200476       0.74489802      -0.70853472
Nb       5.12145627       4.92635482       5.26240267       1.57151747       2.49804258      -1.95862722
16
Lattice="6.88 0.0 0.0 0.0 6.88 0.0 0.0 0.0 6.88" Properties=species:S:1:pos:R:3:forces:R:3 group=ZrNb_rattle18_b2 composition=ZrNb energy=-143.4380340576172 pbc="T T T"
Zr       0.39784698       0.10218882       0.13692973      -2.14600182       0.07289545      -0.51182783
Nb       1.55730191       1.76849847       1.82168363       0.37270534       1.62779498       0.51636016
Nb       0.02364048       0.09799535       3.55047666      -0.43201894      -0.01316024      -0.18703511
Nb       1.42196809       2.01372495       5.14381580       2.85664392      -1.29272628       0.92106909
Nb      -0.17865410       3.36966212       0.22612369       0.68273264       0.07440108       0.29311034
Zr       1.75412630       5.12824180       1.67674675      -0.36234003      -0.76085752       0.66025603
Zr      -0.31157745       3.48692384       4.02665381       4.28606129      -2.19979334      -7.61003113
Zr       1.49228465       5.24662689       5.17099957       2.07466483       0.09746820       0.24496043
Zr       3.63592461       0.18854547       0.07956372      -0.49363840      -0.26727971      -1.35369503
Zr       4.94307933       1.99320329       1.96832848       1.38268209      -0.79045683      -0.85405469
Zr       3.33257815       0.28915437       3.33582859      -0.04160912      -0.74229932       1.78197563
Nb       5.27072838       1.68764217       5.23863457      -1.85188532      -1.76232958       1.15596068
Nb       3.46019862       3.41292166      -0.07264148      -0.52395928       0.07277599      -0.36095136
Zr       5.11935206       5.29415658       1.77341238       0.84735197       0.05094275      -0.25465167
Nb       3.54674357       3.74642908       3.35823181      -1.82828248      -0.68610483       1.33775806
Nb       5.33161207       4.87710925       5.15710866      -4.82310677       6.51873112       4.22079802
16
Lattice="6.88 0.0 0.0 -0.05952111926829144 6.88 0.0 0.0 0.0 6.88" Properties=species:S:1:pos:R:3:forces:R:3 group=ZrNb_strain_shear_b0 composition=ZrNb energy=-147.69920349121094 pbc="T T T"
Zr      -0.06390543      -0.04297795      -0.02459502       0.27090517       0.35659885       0.32121891
Nb       1.68238639       1.74213756       1.72051119       0.27115911       0.02522157      -0.08668170
Zr       0.02958919      -0.02871267       3.54848295      -0.10360300       0.36650005      -0.54550165
Nb       1.67767078       1.71895618       5.14252279       0.39743456       0.25601175       0.20303616
Nb       0.03223021       3.43858271      -0.02116762      -0.30798617      -0.35804361       0.09627084
Zr       1.71619874       5.07700139       1.68398583       0.17812413       0.04086353       0.21901049
Zr      -0.03177055       3.40517953       3.43870486      -0.14280751      -0.22909625      -0.06930149
Zr       1.62507903       5.15071294       5.14402603       0.56056118      -0.32663709       0.02330172
Zr       3.43242037      -0.03521392      -0.00038956      -0.14815521       0.37927020       0.00968596
Zr       5.12888202       1.66564887       1.71347114      -0.18954968       0.44545481       0.06189361
Nb       3.42293473       0.04810060       3.45644921      -0.00469831       0.08395710      -0.03413127
Nb       5.15082568       1.74148603       5.20874054      -0.34327352       0.26481888      -0.07615598
Nb       3.40257271       3.42898237       0.01552758       0.13727263      -0.33099943      -0.02905995
Nb       5.12276975       5.17031118       1.74046790      -0.27447143      -0.38488573       0.04714918
Nb       3.38527738       3.36559420       3.48085482       0.11059152      -0.08850864      -0.09635839
Zr       5.08958604       5.18062840       5.15631803      -0.41150367      -0.50052589      -0.04437649
16
Lattice="6.88 0.0 0.0 -0.22201933897623718 6.88 0.0 0.0 0.0 6.88" Properties=species:S:1:pos:R:3:forces:R:3 group=ZrNb_strain_shear_b0 composition=ZrNb energy=-147.68618774414062 pbc="T T T"
Zr      -0.00064145      -0.02081182      -0.00801688       0.23014848      -0.12383369       0.31606326
Nb       1.71868696       1.72407410       1.76055982       0.09099969       0.36812484       0.05712145
Zr       0.03152581       0.02680100       3.43013712       0.06691803      -0.32078511      -0.27742374
Zr       1.68726227       1.67761846       5.15321111       0.21978605       0.52700192      -0.15631123
Zr      -0.08647764       3.48373265      -0.00104739       0.31315422       0.16023266       0.24495783
Nb       1.54264593       5.17996200       1.74022692       0.31476811      -0.41791174       0.23423561
Nb      -0.17318764       3.44845940       3.39689997       0.51834005       0.30703107      -0.10584546
Nb       1.57652592       5.19526796       5.13061738       0.09005085      -0.46123067      -0.20425145
Zr       3.43336341      -0.02525423       0.03218846      -0.20804697      -0.20336522       0.24424784
Zr       5.07963816       1.73189691       1.74746176      -0.18693683       0.19292437       0.15044619
Nb       3.38229626      -0.04280876       3.44117707       0.02278943      -0.12023770      -0.24869335
Zr       5.14415446       1.75732819       5.17658207      -0.34861553       0.09159109      -0.22583519
Nb       3.33848164       3.44788527      -0.00920714      -0.29706508       0.21400887       0.37477466
Nb       5.02051927       5.15656546       1.72738293      -0.37277529      -0.28037304       0.21826696
Nb       3.34006944       3.41612458       3.47338029      -0.39716035       0.30421346      -0.40771967
Zr       4.93665176       5.16815413       5.12899271      -0.05635485      -0.23739138      -0.21403353
16
Lattice="6.88 0.0 0.0 0.0 6.88 0.0 0.0 -0.29556647949983433 6.88" Properties=species:S:1:pos:R:3:forces:R:3 group=ZrNb_strain_shear_b0 composition=ZrNb energy=-147.7632293701172 pbc="T T T"
Nb       0.00784520       0.00936531       0.00420017      -0.11661309      -0.01106538      -0.03478577
Zr       1.71089663       1.62853054       1.71937302       0.25058770      -0.18499063      -0.03791901
Nb       0.02348010      -0.20220583       3.47911174      -0.22103915       0.24574327      -0.10113378
Nb       1.74189199       1.49623704       5.12885553       0.24080861      -0.25920227       0.10898596
Zr       0.01159592       3.46849833      -0.00004082      -0.07356951      -0.11413690      -0.01483953
Zr       1.68926672       5.10802112       1.70154741       0.44172722       0.23308107       0.12869510
Zr       0.01920788       3.31957855       3.45501306      -0.09402651      -0.17133641      -0.09449407
Zr       1.70897082       4.93588461       5.18367001       0.37562776       0.32517231      -0.05756985
Nb       3.43621683      -0.01707889       0.00749419       0.04472116       0.10270934      -0.03030394
Zr       5.15036877       1.64649586       1.66265774      -0.22069874      -0.33366442       0.21143235
Nb       3.38662955      -0.10601940       3.44009761       0.25127667      -0.10167416       0.01490206
Zr       5.18728306       1.53438715       5.16422283      -0.34761229      -0.43384832      -0.09854609
Nb       3.42555996       3.45432347       0.00933219       0.04474983      -0.08844747       0.00234578
Nb       5.15148565       5.06566386       1.73136694      -0.34146833       0.39259478       0.01864980
Nb       3.44845648       3.28631745       3.44518301      -0.04074718       0.01837969      -0.08796881
Zr       5.10889890       4.93758808       5.14375960      -0.19372410       0.38068542       0.07254987
16
Lattice="6.650697970449879 0.0 0.0 0.0 6.650697970449879 0.0 0.0 0.0 6.650697970449879" Properties=species:S:1:pos:R:3:forces:R:3 group=ZrNb_strain_vol_b0 composition=ZrNb energy=-146.05979919433594 pbc="T T T"
Zr      -0.00326032      -0.00888589      -0.00833034      -0.05850734      -0.10024986       0.05131587
Zr       1.67650569       1.63293526       1.68230372       0.22387703      -0.18088388       0.09947035
Nb       0.03494838      -0.03460007       3.29843150      -0.05547354       0.12270111       0.19082624
Zr       1.71385167       1.65240459       5.07823319       0.12992603      -0.30559945      -0.45157391
Zr       0.00221078       3.29705903      -0.00466705      -0.08411270       0.11687309      -0.01380572
Nb       1.67994119       4.96309322       1.65343883       0.12349379       0.36261675      -0.01215905
Zr       0.03514106       3.32301241       3.30376404      -0.06498826      -0.12270364       0.18509486
Nb       1.65347680       4.98769198       4.99939417       0.36694658       0.34055483      -0.07533310
Nb       3.32857729       0.05428208       0.05601624       0.11408788      -0.25596666      -0.21666989
Nb       5.01291334       1.66771589       1.65411059      -0.26124030      -0.26497877       0.05180094
Nb       3.35662524       0.00586301       3.28284044      -0.07642567      -0.00678948       0.33297992
Nb       4.97970949       1.65335272       4.99098672      -0.11973485      -0.24713524      -0.10217388
Nb       3.30443194       3.36734386      -0.00199423       0.12107915      -0.09445947       0.02910836
Zr       4.95634411       4.96914973       1.68994952      -0.05717349       0.34606773      -0.15568382
Zr       3.33389694       3.31636002       3.31109135      -0.02629137      -0.05320352       0.15343830
Zr       4.96815690       4.98580654       5.01314886      -0.27546242       0.34315696      -0.06663566
16
Lattice="6.985056999115267 0.0 0.0 0.0 6.985056999115267 0.0 0.0 0.0 6.985056999115267" Properties=species:S:1:pos:R:3:forces:R:3 group=ZrNb_strain_vol_b0 composition=ZrNb energy=-147.62088012695312 pbc="T T T"
Nb       0.00696814       0.00394572      -0.01765372      -0.10684601      -0.29653174      -0.01054034
Zr       1.71177562       1.76809985       1.72737867       0.19549069      -0.23987956      -0.26820552
Zr       0.02778994       0.04197147       3.44552065      -0.11756386      -0.43331921       0.18740523
Zr       1.75136344       1.68012180       5.24062193      -0.02127612      -0.04337925       0.24416578
Nb      -0.01503301       3.48733360      -0.01274491      -0.05467362       0.28593934      -0.04478776
Nb       1.73220642       5.27007136       1.74984643       0.03486140       0.21863185      -0.36489353
Zr      -0.00985889       3.47814270       3.47387209       0.05680364       0.34265524       0.12142965
Nb       1.74024088       5.23784603       5.17801261      -0.02107139       0.24244639       0.39633077
Nb       3.47272938      -0.01326339       0.00307577       0.08020293      -0.25384125       0.04523082
Zr       5.26196464       1.73686713       1.80867155      -0.22713888      -0.17985007      -0.58750260
Nb       3.48937591       0.01520570       3.49668879       0.02387181      -0.27875412      -0.06401646
Nb       5.16857632       1.77923648       5.21947015       0.11628126      -0.31929731       0.36728618
Zr       3.41109190       3.50005490      -0.01218411       0.21867724       0.28967023       0.06224523
Nb       5.28670584       5.24591707       1.77045158      -0.13006386       0.22450608      -0.41857779
Zr       3.50117062       3.54550085       3.47735141      -0.09474059       0.14512220      -0.02859811
Zr       5.22611360       5.24919970       5.22402032       0.04718548       0.29588127       0.36302847
16
Lattice="6.716354206112294 0.0 0.0 0.0 6.716354206112294 0.0 0.0 0.0 6.716354206112294" Properties=species:S:1:pos:R:3:forces:R:3 group=ZrNb_strain_vol_b0 composition=ZrNb energy=-146.7661590576172 pbc="T T T"
Nb      -0.00500028       0.00671175      -0.00804463       0.07630833      -0.28406376       0.07839525
Zr       1.68773773       1.67317265       1.72035024      -0.34671703      -0.30038235      -0.14433186
Nb       0.01643987       0.00323181       3.38736725       0.05628163      -0.30899504      -0.11630039
Zr       1.65712358       1.70827408       5.02130792      -0.13406628      -0.63507503       0.15378043
Nb       0.01630054       3.37200252      -0.00099467      -0.14897171       0.21895650       0.09016355
Nb       1.68524903       5.05625378       1.69567202      -0.25083563       0.22348179      -0.02813862
Zr       0.01336690       3.39976379       3.36859742      -0.09094238       0.19864365      -0.08758920
Nb       1.69146196       4.97343473       5.04715546      -0.35698926       0.68763793       0.04892281
Zr       3.37117582      -0.04368325      -0.01337651      -0.11001408      -0.09326784      -0.01249635
Zr       5.00565237       1.66411708       1.71366534       0.49044096      -0.25234810      -0.15808666
Nb       3.40830626      -0.03169448       3.33389288      -0.22822842      -0.18785000       0.11687607
Nb       5.07403889       1.66828847       5.01169930       0.13454345      -0.20089927       0.20134541
Zr       3.34276991       3.34712971       0.01230752       0.15335792       0.19292855       0.10509251
Nb       5.06697991       5.00136577       1.68816417       0.21459843       0.36682284      -0.10256396
Zr       3.37109636       3.35750512       3.42723726       0.04756448       0.25044936      -0.27213889
Zr       5.02086454       5.07316218       5.02639104       0.49366951       0.12396064       0.12706980
16
Lattice="7.14 0.0 0.0 0.0 7.14 0.0 0.0 0.0 7.14" Properties=species:S:1:pos:R:3:forces:R:3 group=Zr_md1400_b1 composition=Zr energy=-136.26161193847656 pbc="T T T"
Zr       0.00000000       0.00000000       0.00000000       0.00000039       0.00000052       0.00000016
Zr       1.78500000       1.78500000       1.78500000       0.00000029       0.00000039       0.00000023
Zr       0.00000000       0.00000000       3.57000000       0.00000033       0.00000037       0.00000043
Zr       1.78500000       1.78500000       5.35500000       0.00000043       0.00000052      -0.00000031
Zr       0.00000000       3.57000000       0.00000000       0.00000033       0.00000048       0.00000016
Zr       1.78500000       5.35500000       1.78500000       0.00000058      -0.00000095       0.00000014
Zr       0.00000000       3.57000000       3.57000000       0.00000028       0.00000034       0.00000031
Zr       1.78500000       5.35500000       5.35500000       0.00000089      -0.00000096      -0.00000034
Zr       3.57000000       0.00000000       0.00000000       0.00000015       0.00000039       0.00000016
Zr       5.35500000       1.78500000       1.78500000      -0.00000088       0.00000007      -0.00000015
Zr       3.57000000       0.00000000       3.57000000       0.00000001       0.00000037       0.00000009
Zr       5.35500000       1.78500000       5.35500000      -0.00000122       0.00000039      -0.00000027
Zr       3.57000000       3.57000000       0.00000000       0.00000012       0.00000003       0.00000011
Zr       5.35500000       5.35500000       1.78500000      -0.00000081      -0.00000087       0.00000011
Zr       3.57000000       3.57000000       3.57000000      -0.00000008      -0.00000014      -0.00000002
Zr       5.35500000       5.35500000       5.35500000      -0.00000084      -0.00000087      -0.00000075
16
Lattice="7.14 0.0 0.0 0.0 7.14 0.0 0.0 0.0 7.14" Properties=species:S:1:pos:R:3:forces:R:3 group=Zr_md1400_b1 composition=Zr energy=-135.13833618164062 pbc="T T T"
Zr       0.08428152       0.21422338       0.10879285      -0.71575749      -1.30012167      -0.83512497
Zr       1.77800264       1.46363597       1.64788797       0.75920439       1.31171691       0.39947274
Zr       0.21107418      -0.11941217       3.47162245      -0.63655257       0.21598467       0.46187952
Zr       1.79544907       1.60923268       5.32506384       0.30933920       0.67492950      -0.08921357
Zr      -0.12842585       3.33525081      -0.01632582       0.74834698       0.90534735      -0.10478263
Zr       1.76314860       5.38891391       1.63467751      -0.04699504      -0.34185669      -0.09902360
Zr       0.17386042       3.54879611       3.49818593      -0.09316508      -0.39790750      -0.00222470
Zr       1.78025859       5.19477404       5.36554550       0.01353034       0.17762879       0.25850901
Zr       3.56631970      -0.03045816      -0.17586941       0.63931584      -0.16220576       0.21198396
Zr       5.48479319       1.87935264       1.80410787      -0.64641112      -0.53327513       0.50327247
Zr       3.54162366       0.00998664       3.49248543       0.50924772      -0.14795320       0.12346147
Zr       5.44440067       1.76032583       5.47013431      -0.50179464      -0.02699414      -0.89561087
Zr       3.70247578       3.75490424       0.22989423      -0.38251132      -0.69384354      -0.89169532
Zr       5.48034648       5.28311049       1.75092232       0.00170228       0.54866964       0.05634324
Zr       3.42711118       3.67969910       3.40526571       0.29124019      -0.54144895       0.38645044
Zr       5.49440992       5.22047318       5.10656465      -0.24873945       0.31132978       0.51630288
16
Lattice="7.14 0.0 0.0 0.0 7.14 0.0 0.0 0.0 7.14" Properties=species:S:1:pos:R:3:forces:R:3 group=Zr_md1400_b1 composition=Zr energy=-133.8828887939453 pbc="T T T"
Zr       0.09967351       0.27874825       0.11786183      -1.49018383      -2.08615971      -1.60524726
Zr       1.87351045       1.32736913       1.51939436       1.31035805       2.38993216       0.92326105
Zr       0.31859149      -0.16390650       3.43982085      -0.71869659       0.36545518       0.75634354
Zr       1.84248743       1.55527895       5.29242851       0.47714394       0.83567578      -0.09448534
Zr      -0.16715642       3.18817934      -0.11658907       1.04194486       1.50019360       0.08424464
Zr       1.70430829       5.35042728       1.49807659       0.01180029      -0.43233371      -0.01604022
Zr       0.33979686       3.45672573       3.43020849      -0.38762054      -0.56695944      -0.00789344
Zr       1.78664812       5.03454413       5.45660717       0.02063572       0.56524140       0.03753860
Zr       3.58861119      -0.09434312      -0.28115082       1.14902043      -0.32199144       0.34190622
Zr       5.52746648       1.92577136       1.84566948      -0.88321942      -0.88084388       0.72420853
Zr       3.53338462      -0.01837308       3.40101963       0.83933336      -0.47824705       0.27940953
Zr       5.43963997       1.72515274       5.41895266      -0.79801267      -0.02431513      -1.31378186
Zr       3.76421702       3.83355468       0.37251067      -0.18516867      -1.01398933      -1.52309930
Zr       5.72195673       5.29931196       1.76966384      -0.62014836       0.50824410      -0.17928594
Zr       3.34552695       3.70445863       3.31158089       0.74773717      -0.60710770       0.64122236
Zr       5.58776320       5.18690834       4.97108882      -0.51492459       0.24720518       0.95169884
16
Lattice="7.14 0.0 0.0 0.0 7.14 0.0 0.0 0.0 7.14" Properties=species:S:1:pos:R:3:forces:R:3 group=Zr_md600_b0 composition=Zr energy=-136.26161193847656 pbc="T T T"
Zr       0.00000000       0.00000000       0.00000000       0.00000039       0.00000052       0.00000016
Zr       1.78500000       1.78500000       1.78500000       0.00000029       0.00000039       0.00000023
Zr       0.00000000       0.00000000       3.57000000       0.00000033       0.00000037       0.00000043
Zr       1.78500000       1.78500000       5.35500000       0.00000043       0.00000052      -0.00000031
Zr       0.00000000       3.57000000       0.00000000       0.00000033       0.00000048       0.00000016
Zr       1.78500000       5.35500000       1.78500000       0.00000058      -0.00000095       0.00000014
Zr       0.00000000       3.57000000       3.57000000       0.00000028       0.00000034       0.00000031
Zr       1.78500000       5.35500000       5.35500000       0.00000089      -0.00000096      -0.00000034
Zr       3.57000000       0.00000000       0.00000000       0.00000015       0.00000039       0.00000016
Zr       5.35500000       1.78500000       1.78500000      -0.00000088       0.00000007      -0.00000015
Zr       3.57000000       0.00000000       3.57000000       0.00000001       0.00000037       0.00000009
Zr       5.35500000       1.78500000       5.35500000      -0.00000122       0.00000039      -0.00000027
Zr       3.57000000       3.57000000       0.00000000       0.00000012       0.00000003       0.00000011
Zr       5.35500000       5.35500000       1.78500000      -0.00000081      -0.00000087       0.00000011
Zr       3.57000000       3.57000000       3.57000000      -0.00000008      -0.00000014      -0.00000002
Zr       5.35500000       5.35500000       5.35500000      -0.00000084      -0.00000087      -0.00000075
16
Lattice="7.14 0.0 0.0 0.0 7.14 0.0 0.0 0.0 7.14" Properties=species:S:1:pos:R:3:forces:R:3 group=Zr_md600_b0 composition=Zr energy=-135.8768310546875 pbc="T T T"
Zr      -0.06420821       0.02290537       0.17708598       0.22645268      -0.03112169      -0.39284775
Zr       1.87159678       1.82164207       1.84562760      -0.20318541       0.10038151      -0.22091514
Zr       0.07030216       0.02779323       3.68380871      -0.39800644      -0.01764277      -0.22815913
Zr       1.73891008       1.77963341       5.36251811       0.16061269       0.12837556       0.14002723
Zr      -0.02105210       3.48164923      -0.11268384       0.34609759       0.32818156       0.43779048
Zr       1.87126614       5.44213900       1.84778779      -0.26030496      -0.37169126      -0.21792535
Zr      -0.14177926       3.51926811       3.53263144       0.59655595       0.24155006      -0.07627415
Zr       1.77696802       5.49559128       5.26446357      -0.02424192      -0.48061162       0.37205130
Zr       3.61697112       0.02827987      -0.03665341      -0.07898220      -0.00026566       0.00872967
Zr       5.36796645       1.80604053       1.84020528      -0.05821243      -0.12042816      -0.13819960
Zr       3.47413990       0.00023414       3.52815351       0.51299602       0.04468111       0.20605870
Zr       5.34699941       1.90568101       5.36933418      -0.06526202      -0.61356032       0.06786722
Zr       3.63046578       3.63915553       0.02635442      -0.35322034      -0.07386890       0.02011892
Zr       5.39192539       5.39063933       1.75132574      -0.03445604      -0.05950175       0.17953643
Zr       3.65258762       3.49043048       3.62547163      -0.39035565       0.31124619      -0.14751442
Zr       5.36137923       5.21453428       5.35368590       0.02351249       0.61427599      -0.01034434
16
Lattice="7.14 0.0 0.0 0.0 7.14 0.0 0.0 0.0 7.14" Properties=species:S:1:pos:R:3:forces:R:3 group=Zr_md600_b0 composition=Zr energy=-135.35206604003906 pbc="T T T"
Zr      -0.09342422       0.05514007       0.30285118       0.43665400      -0.02435975      -0.75543791
Zr       1.90501282       1.89612566       1.88228380      -0.33190936      -0.02787665      -0.38139477
Zr       0.12389691       0.09007790       3.78728521      -0.72062403      -0.12671864      -0.53277308
Zr       1.72632151       1.80865365       5.36840580       0.34363952       0.13403510       0.25305182
Zr      -0.02012436       3.46408005      -0.17627386       0.50205916       0.45264658       0.84015250
Zr       1.89819384       5.44291733       1.83098197      -0.38554451      -0.42023638      -0.14743438
Zr      -0.20276180       3.52308868       3.52359872       0.98508495       0.32643238      -0.16443709
Zr       1.72486615       5.53660541       5.24413075       0.17588279      -0.71376669       0.51602840
Zr       3.63392569       0.04772218      -0.07238874      -0.12410524      -0.02420662       0.05478330
Zr       5.37250427       1.81182632       1.86343139      -0.08142102      -0.16399859      -0.25498888
Zr       3.48140132      -0.02191235       3.48231303       0.63686109       0.05834987       0.41610384
Zr       5.33582442       1.96431176       5.39652498      -0.10213053      -1.10163593       0.14884964
Zr       3.64118394       3.70158267       0.05301639      -0.46952766      -0.17802578      -0.00942150
Zr       5.43146032       5.41409712       1.75897335      -0.10597026      -0.13027412       0.28351516
Zr       3.70324918       3.39532807       3.64603185      -0.70037675       0.76032507      -0.19618918
Zr       5.38021593       5.14618405       5.37210604      -0.05857226       1.17931008      -0.07040779
16
Lattice="7.14 0.0 0.0 0.0 7.14 0.0 0.0 0.0 7.14" Properties=species:S:1:pos:R:3:forces:R:3 group=Zr_rattle05_b0 composition=Zr energy=-136.14202880859375 pbc="T T T"
Zr      -0.04190250       0.06619173      -0.02440286       0.19297120      -0.15414734       0.02220568
Zr       1.80917145       1.85524287       1.85137463      -0.16741054      -0.09730435      -0.13175420
Zr       0.00804421      -0.03778879       3.55844141       0.05623087       0.11776436       0.10054263
Zr       1.84720670       1.76170747       5.37898600      -0.18382432      -0.03247464      -0.08979714
Zr      -0.02911297       3.60876297       0.00191130       0.08182324      -0.03238977      -0.03433619
Zr       1.84116799       5.39270406       1.78346793      -0.22998255      -0.12869230      -0.04183038
Zr      -0.02216323       3.62931279       3.58315541       0.03897822      -0.14396857       0.06113039
Zr       1.87377706       5.30546367       5.38754684      -0.21156317       0.16404665      -0.08415742
Zr       3.54438314      -0.01887113       0.09298064       0.02604851       0.06958179      -0.20831844
Zr       5.38954958       1.73052342       1.78763909      -0.01376329       0.19414704       0.06353425
Zr       3.57028512      -0.04769695       3.48760560       0.01979837       0.15187922       0.24888717
Zr       5.32839516       1.79095968       5.45216807       0.04863097      -0.03432338      -0.29428077
Zr       3.52886608       3.54526911      -0.07865802       0.14126566       0.03099252       0.22522633
Zr       5.35847192       5.34097306       1.77054815       0.04466418      -0.05986810      -0.04706204
Zr       3.54726654       3.53548458       3.52140054       0.14890124       0.02322989       0.10003035
Zr       5.33777272       5.40376980       5.30801431       0.00723139      -0.06847303       0.10997976
16
Lattice="7.14 0.0 0.0 0.0 7.14 0.0 0.0 0.0 7.14" Properties=species:S:1:pos:R:3:forces:R:3 group=Zr_rattle05_b0 composition=Zr energy=-136.16476440429688 pbc="T T T"
Zr      -0.05944146       0.02045002       0.00990831       0.12865181       0.05003539      -0.08394939
Zr       1.72948316       1.78686842       1.77483300       0.12593672       0.01869863       0.08974518
Zr      -0.09412694      -0.02455460       3.46287608       0.20826854       0.10559568       0.31213140
Zr       1.78935469       1.83055422       5.35599089       0.02575103      -0.18403447      -0.00911353
Zr       0.02067526       3.61089712       0.01018074      -0.08125407      -0.09048514      -0.00508916
Zr       1.75666745       5.32847589       1.84418805      -0.04602605       0.05285731      -0.05372027
Zr      -0.03242151       3.51163218       3.67948122       0.05263746       0.12680449      -0.18181138
Zr       1.81747330       5.41033372       5.43648377      -0.14800861       0.03257786      -0.14604394
Zr       3.56386055      -0.00710602       0.07729282      -0.02791601       0.10323859      -0.11089550
Zr       5.34637137       1.82063297       1.78672345      -0.12341835       0.07741688       0.01826837
Zr       3.55943653      -0.07157927       3.57432887      -0.03969119       0.24272141       0.01436614
Zr       5.32655599       1.79267854       5.36351294      -0.08871919      -0.02718616       0.01796215
Zr       3.52950860       3.62685297       0.01471018       0.10165609      -0.12042384       0.01704879
Zr       5.37897115       5.39496152       1.76279614      -0.07433361      -0.21028927       0.04190782
Zr       3.53421444       3.66176727       3.58042638       0.05844369      -0.20982143      -0.00129052
Zr       5.38242498       5.36027692       5.34311468      -0.07197832       0.03229402       0.08048394
16
Lattice="7.14 0.0 0.0 0.0 7.14 0.0 0.0 0.0 7.14" Properties=species:S:1:pos:R:3:forces:R:3 group=Zr_rattle05_b0 composition=Zr energy=-136.07156372070312 pbc="T T T"
Zr       0.02014081       0.01905404      -0.01452589      -0.06538827      -0.03069476      -0.02482687
Zr       1.78851224       1.78363914       1.76670430      -0.12394869      -0.09011905       0.12491593
Zr      -0.04438672       0.07956485       3.51242068       0.12732095      -0.25347435       0.12631175
Zr       1.89020063       1.84625983       5.33815251      -0.18658350      -0.22929864      -0.02584875
Zr       0.06280845       3.52461525      -0.01047054      -0.23722361       0.02133819       0.14521861
Zr       1.80425154       5.25795773       1.72063772      -0.13662356       0.29143006       0.22852665
Zr      -0.06038632       3.55560519       3.62837771       0.17946069       0.10755030      -0.29952008
Zr       1.74223516       5.28368472       5.40276322       0.10550353       0.25920942      -0.16581340
Zr       3.56071198       0.00271466       0.01372466       0.07506686      -0.10454224      -0.17763533
Zr       5.24077044       1.73219143       1.80831710       0.28446651       0.08784543      -0.07879637
Zr       3.52727442       0.03900172       3.56105157       0.05617823      -0.25074017       0.13093691
Zr       5.45053847       1.92630941       5.31450936      -0.27879491      -0.37838167       0.16615757
Zr       3.53474742       3.49910304       0.08238692       0.22873722       0.18272845      -0.23522046
Zr       5.34996515       5.31836643       1.76339873       0.04931697       0.09183030       0.03322116
Zr       3.54126385       3.58342527       3.56809204       0.06051627       0.12268565       0.03802432
Zr       5.39013888       5.32752763       5.36835398      -0.13800466       0.17263302       0.01434842
16
Lattice="7.14 0.0 0.0 0.0 7.14 0.0 0.0 0.0 7.14" Properties=species:S:1:pos:R:3:forces:R:3 group=Zr_rattle10_b1 composition=Zr energy=-135.7869110107422 pbc="T T T"
Zr       0.13959016       0.02711813       0.14914916      -0.43540671      -0.28683606      -0.40695441
Zr       1.76456268       1.74168833       1.64832226       0.09439275       0.29797268       0.51875997
Zr      -0.01018250       0.02611121       3.47906364       0.18806162      -0.13992268       0.54204249
Zr       1.63117557       1.78062672       5.49552080       0.41929960      -0.10999444      -0.36671406
Zr      -0.02063591       3.67636751       0.05385176      -0.04978284      -0.13647467       0.11949150
Zr       1.69695057       5.36334154       1.84998371       0.46607786      -0.15844680      -0.05262287
Zr      -0.09109251       3.55823604       3.68733159       0.42891562       0.01553330      -0.25680083
Zr       1.89389283       5.24714012       5.30291355      -0.15901238       0.39844641       0.20612815
Zr       3.78225581       0.16463773       0.07040669      -0.33324072      -0.49668574      -0.15474749
Zr       5.34142232       1.80587986       2.05562634       0.09799147       0.10553414      -0.65066344
Zr       3.57175591      -0.02878797       3.57033555      -0.15793934       0.06191936       0.25148845
Zr       5.43887502       1.76445380       5.44888227      -0.12802111      -0.08481489      -0.01531846
Zr       3.54661806       3.56761542      -0.00131942       0.14927872       0.07520911       0.17503087
Zr       5.38361067       5.39020180       1.86567908      -0.23407857      -0.15947619      -0.13151650
Zr       3.56785924       3.45835075       3.56841755      -0.24957296       0.12585759       0.09054434
Zr       5.38253698       5.22831673       5.35307826      -0.09696329       0.49217883       0.13185227
16
Lattice="7.14 0.0 0.0 0.0 7.14 0.0 0.0 0.0 7.14" Properties=species:S:1:pos:R:3:forces:R:3 group=Zr_rattle10_b1 composition=Zr energy=-135.6228790283203 pbc="T T T"
Zr       0.02457783      -0.12093820      -0.16245143      -0.11930034       0.34130344       0.97961468
Zr       1.75417224       1.77723333       1.70569123      -0.05760837      -0.03995132       0.25827178
Zr      -0.14791919       0.02656988       3.65562307       0.37221920       0.05653422      -0.82994926
Zr       1.60476506       1.78338550       5.37898158       0.46154812       0.03675160      -0.04836163
Zr       0.02232980       3.69261964       0.07958279      -0.07400090      -0.38778898      -0.33477253
Zr       1.84344496       5.19111026       1.84420563      -0.13252568       0.52216178       0.07973237
Zr       0.01372959       3.62905982       3.66072687       0.04560211      -0.23984754      -0.07970089
Zr       1.71871542       5.57626544       5.21792045       0.46301430      -0.39751783       0.11888257
Zr       3.51100191      -0.05215635       0.17702548       0.26436323       0.15402126      -0.30023083
Zr       5.40714775       1.93886855       1.96330338      -0.15831819      -0.25115111      -0.67442381
Zr       3.62327462       0.06668573       3.56859857      -0.16324042      -0.09377830      -0.12734140
Zr       5.36213159       1.65130720       5.38929787      -0.29186729       0.56528807       0.38792491
Zr       3.37088918       3.68735533      -0.17576231       0.49122086      -0.26123536       0.12991475
Zr       5.42972015       5.24624137       1.73688401      -0.33179516       0.25983244       0.13881317
Zr       3.55033562       3.56258562       3.61801962       0.01289825      -0.04239469       0.11676060
Zr       5.49605977       5.37165846       5.30762513      -0.78220969      -0.22222775       0.18486562
16
Lattice="7.14 0.0 0.0 0.0 7.14 0.0 0.0 0.0 7.14" Properties=species:S:1:pos:R:3:forces:R:3 group=Zr_rattle10_b1 composition=Zr energy=-135.7561492919922 pbc="T T T"
Zr      -0.05789590      -0.01388654      -0.11343576       0.22669941       0.21515401       0.35437560
Zr       1.87559784       1.99530561       1.75258780       0.06968457      -0.67436677       0.05876842
Zr       0.12501938       0.11328892       3.47208680      -0.10199587      -0.10354865       0.29025906
Zr       1.93084406       1.70672664       5.37394751      -0.36013758       0.41768974      -0.09267841
Zr      -0.01160955       3.37198528      -0.05504927      -0.09466588       0.42418158       0.09024707
Zr       1.66324009       5.35895752       1.90659077       0.22903931       0.22991806      -0.49914020
Zr      -0.03150309       3.52898254       3.47713451       0.00697497       0.17369121       0.36255041
Zr       1.66639503       5.34111084       5.40770632       0.11341164      -0.12590779       0.01637656
Zr       3.64058579       0.02006200      -0.15427751      -0.25706333      -0.07438602       0.73974156
Zr       5.44041495       1.73468361       1.91659345      -0.41956550       0.09666219      -0.35321328
Zr       3.67128497      -0.01688803       3.76242019      -0.36920911       0.03351377      -0.63564253
Zr       5.26583229       1.87269073       5.31404999       0.29455519       0.08936562       0.01253961
Zr       3.60697570       3.61026785       0.10007795       0.05396003       0.14331171      -0.19904789
Zr       5.27500716       5.47312962       1.83401150       0.27567461      -0.15664454      -0.15618902
Zr       3.52239718       3.74084800       3.57396115       0.14878021      -0.20993149       0.14392567
Zr       5.39192667       5.45949884       5.39332826       0.18385719      -0.47870246      -0.13287278
54
Lattice="10.709999999999999 0.0 0.0 0.0 10.709999999999999 0.0 0.0 0.0 10.709999999999999" Properties=species:S:1:pos:R:3:forces:R:3 group=Zr_rattle10_b9 composition=Zr energy=-457.9305725097656 pbc="T T T"
Zr      -0.08633209       0.02456758      -0.01597406       0.12921436      -0.10040393      -0.01018294
Zr       1.76913943       1.74602484       1.77448665       0.02260005       0.10687693      -0.04744063
Zr       0.08613085      -0.23009464       3.50639448      -0.49299163       0.61118925      -0.04884596
Zr       1.83454743       1.75288192       5.25102204      -0.35402632       0.24020150      -0.10257106
Zr       0.10580025       0.17798595       7.12752232      -0.29587147      -0.36684915      -0.05916251
Zr       1.82516840       2.04340570       8.83289992       0.11709972      -0.71900874       0.19791758
Zr       0.01758229       3.41789932      -0.06096980      -0.04643062       0.40310711       0.16493283
Zr       1.71724447       5.28548794       1.99374254       0.23758125       0.02953909      -0.80868757
Zr      -0.13601758       3.67408695       3.40518701       0.15327656      -0.47055703       0.62858629
Zr       2.01886679       5.15759338       5.42252534      -0.77117985       0.44614282      -0.43681386
Zr       0.01220055       3.59192623       7.19672351      -0.53075427      -0.14573488      -0.33990631
Zr       1.55068304       5.36851433       8.82436852       0.51862568       0.18493843       0.45443293
Zr      -0.05112131       7.26247033      -0.04431064       0.41755158      -0.19133750       0.08775967
Zr       1.64764189       8.90154640       1.62470168       0.37797850      -0.07253114       0.28837830
Zr       0.10680540       7.07559520       3.64722879      -0.27533412      -0.03849520      -0.06861462
Zr       1.69648005       8.91994663       5.26598723       0.39632288      -0.04263868       0.39575499
Zr      -0.06772496       7.11642204       7.08377543       0.31800511       0.26857197      -0.02706795
Zr       1.76085173       9.02763911       8.93299068      -0.15798274      -0.16991363      -0.41467217
Zr       3.42317487      -0.12549909      -0.12510937       0.34367859       0.49122155       0.18236393
Zr       5.29505253       1.83794980       1.76961336       0.12255772      -0.21293871      -0.13132659
Zr       3.51491451       0.04575466       3.52353519       0.19369340      -0.23383561      -0.02520461
Zr       5.39717792       1.66351592       5.55901504      -0.01435578       0.45586696      -0.82104921
Zr       3.62639023       0.10614209       6.97595788      -0.45822796      -0.33483058       0.48242339
Zr       5.31750805       1.81675806       8.90253243      -0.09181260       0.06866717       0.14580622
Zr       3.56679755       3.64291092      -0.06244803       0.04547523       0.17849560       0.27243885
Zr       5.60787541       5.45322364       1.84509042      -0.42269769      -0.14057465      -0.24161904
Zr       3.68117572       3.50303931       3.50671287       0.06704926       0.11210251       0.03403949
Zr       5.27849304       5.49180241       5.42620377       0.14395952      -0.01437502      -0.32416698
Zr       3.49300161       3.67187323       7.03861899       0.46424690      -0.31614399       0.37576976
Zr       5.47890928       5.30703530       8.88774595      -0.28390959       0.07875502       0.41620231
Zr       3.59147639       7.10780359      -0.04889044      -0.19047290      -0.29360884       0.24611598
Zr       5.28474696       9.01904505       1.80605656      -0.00127333      -0.14146407       0.00916453
Zr       3.45448027       7.08932078       3.44734943       0.32010141       0.22835436       0.12790552
Zr       5.26128175       8.86101834       5.44703767       0.13952929       0.11271453      -0.33454853
Zr       3.52335977       7.12657174       7.23942336      -0.27920616       0.01234648      -0.16461653
Zr       5.18440233       8.76324906       8.83649671       0.29499045       0.50987762       0.07230005
Zr       7.02998822      -0.02749507      -0.11435765      -0.15634051      -0.03240561       0.32463354
Zr       8.88605713       1.82305732       1.70502427       0.04782543      -0.31031254       0.41598952
Zr       7.22566770       0.02971829       3.49371732      -0.20119096      -0.06894810       0.14958245
Zr       8.86174276       1.82503640       5.37393493       0.24645239      -0.03368925      -0.10924824
Zr       7.06626069       0.12017845       7.11775373       0.30764738      -0.51512784       0.06799167
Zr       8.89277381       1.61568368       9.02556434      -0.06398805       0.47372615      -0.56023490
Zr       7.24724358       3.44387922       0.05430398      -0.28959718       0.41058022      -0.22668126
Zr       9.03422426       5.38853707       1.70254205      -0.35488081       0.02659992       0.13699183
Zr       7.10475094       3.63986165       3.64994007       0.03157374      -0.15838583      -0.08229381
Zr       8.90990485       5.36982711       5.43419067       0.06121957      -0.09437203      -0.21907142
Zr       6.98540865       3.76062830       7.09217649       0.57963270      -0.50081468       0.21678117
Zr       8.97115639       5.61294066       9.07152154      -0.15943021      -0.92501336      -0.22719282
Zr       7.17216300       7.28416183      -0.03619587      -0.54825997      -0.30675074       0.19965082
Zr       8.80774929       8.70880498       1.70837304       0.20163424       0.55846643       0.35473943
Zr       7.12604980       7.21267479       3.67379904      -0.01181646      -0.08628611      -0.11198955
Zr       8.95611464       8.87059531       5.28313593      -0.11108103       0.36960569       0.27288684
Zr       7.22344775       7.13665860       7.26107527      -0.26276386       0.13782284      -0.47836429
Zr       8.75168682       8.90331914       8.90410975       0.52635318       0.52157706      -0.29996657
54
Lattice="10.709999999999999 0.0 0.0 0.0 10.709999999999999 0.0 0.0 0.0 10.709999999999999" Properties=species:S:1:pos:R:3:forces:R:3 group=Zr_rattle10_b9 composition=Zr energy=-457.9148254394531 pbc="T T T"
Zr       0.07139970      -0.13880247       0.03920652      -0.23144697       0.57141054      -0.11816436
Zr       1.83140833       1.61573186       1.86713820      -0.21457443       0.37507650      -0.55157530
Zr      -0.04166438      -0.09688613       3.55090585       0.02887058       0.39468253       0.51001781
Zr       1.88104836       1.91218463       5.23799444      -0.11704430      -0.59324944       0.67202753
Zr       0.04456581      -0.00140501       7.19109817      -0.14951228       0.33350605      -0.36064294
Zr       1.74489354       1.75297777       8.85740388      -0.16051114       0.09010726       0.13661762
Zr       0.05680323       3.55185657      -0.05100724      -0.05445500      -0.14542291       0.34237835
Zr       1.81557246       5.41826125       1.82122161      -0.35424289      -0.30179259      -0.03071450
Zr       0.04938814       3.37670332       3.69959860      -0.16499540       0.72151703      -0.48360378
Zr       1.81886117       5.46364042       5.38989235      -0.19253823      -0.34187698      -0.19801186
Zr      -0.02318134       3.67358801       7.12554775       0.26035976      -0.02431932       0.04373405
Zr       1.79844023       5.29073618       9.03456552      -0.25265735       0.36036325      -0.32808042
Zr       0.10430446       7.28271103       0.05971687      -0.40807062      -0.43053541      -0.23398161
Zr       1.66646092       8.89349443       1.94341263       0.56403500       0.00463426      -0.37638521
Zr      -0.14587479       7.27388427       3.56347642       0.04059514      -0.78901601       0.07422653
Zr       1.69616539       8.85060062       5.44107492       0.37804154       0.47601584      -0.44252124
Zr       0.06397849       7.21274548       7.07083918      -0.23610970      -0.47622335       0.55360872
Zr       1.74304151       8.99601098       8.89485224      -0.10551828      -0.37265861       0.05422473
Zr       3.56850527      -0.08637124      -0.24316289       0.09407130       0.19023418       0.89675426
Zr       5.39886936       1.71259070       1.68486345       0.01731120       0.26605922       0.14689739
Zr       3.49650113       0.02467596       3.42235675       0.27908891      -0.20042603       0.47081396
Zr       5.36336181       1.89729078       5.22699988      -0.07111230      -0.39963719       0.19627857
Zr       3.55481107      -0.09094239       7.33719011       0.18526766       0.42828465      -0.87186790
Zr       5.30737959       1.93487476       8.89697059       0.34630716      -0.41779664       0.13150617
Zr       3.47891579       3.51591006      -0.08951172       0.14082035      -0.04519507       0.48805565
Zr       5.22528419       5.27321918       1.82556819       0.37048745       0.01131558      -0.20389107
Zr       3.48067208       3.48770365       3.54949117       0.21429209       0.22676629      -0.27258047
Zr       5.15562184       5.22111846       5.35021884       0.39200789       0.32959715       0.03859573
Zr       3.49415987       3.54359294       7.29262056       0.07911269       0.07114159      -0.45445901
Zr       5.26286014       5.43203484       8.95560940       0.10596852      -0.19481876      -0.16920954
Zr       3.47508074       7.14958823      -0.14391640       0.19664083       0.13859071       0.56381077
Zr       5.41550766       8.97405597       1.93041333      -0.38244426      -0.26206312      -0.63928652
Zr       3.49080404       7.09451733       3.47671003       0.26035807       0.20877901       0.20564854
Zr       5.28379155       8.98653675       5.26983111      -0.04720254      -0.23373553       0.09310304
Zr       3.48307471       7.26633608       7.06650205       0.36220795      -0.33985436       0.20760135
Zr       5.32568814       8.87724132       8.96186734       0.33489031       0.01014341      -0.20279564
Zr       7.15737913      -0.03971132       0.07696794      -0.00406951       0.17921805      -0.43686244
Zr       8.96743033       1.71818882       1.83939374      -0.05090100       0.25366434      -0.18612269
Zr       7.23185710      -0.20913504       3.48364118      -0.08527958       0.65915358       0.54993880
Zr       8.98809543       1.91322893       5.41871928      -0.24806663      -0.60554945       0.00878625
Zr       6.95418828      -0.06789316       7.00346967       0.34056613       0.30334395       0.24527760
Zr       8.95631778       1.93968428       8.80322946      -0.10942492      -0.61120683       0.26099399
Zr       7.27409723       3.58774008      -0.06836746      -0.43469086      -0.15105560       0.27756819
Zr       8.92216800       5.28062551       1.64344103       0.07787172       0.21014088       0.42137808
Zr       7.25877942       3.56661981       3.69411897      -0.23259839       0.10517240      -0.48651725
Zr       8.83021695       5.32055897       5.50729208       0.21883240       0.14909792      -0.49593979
Zr       7.11296762       3.55503779       7.21003545      -0.20321015       0.11221531      -0.15596017
Zr       8.86671267       5.37111654       9.00170757       0.39644116       0.20441690      -0.10700661
Zr       7.02596022       7.11835465      -0.16811353       0.26720804       0.13935450       0.61419481
Zr       8.96595011       8.98033935       1.83410309      -0.32651967      -0.42263365      -0.43988305
Zr       7.06881945       7.18092998       3.49895357       0.16334829      -0.48198554       0.22448845
Zr       9.01560081       8.81530541       5.50725762      -0.47279540       0.35859942      -0.26097214
Zr       7.25240814       7.07954885       7.14413959      -0.57828110       0.18777771      -0.03504015
Zr       8.94074303       9.06480953       8.88106098      -0.22672942      -0.22932711       0.11354883
54
Lattice="10.709999999999999 0.0 0.0 0.0 10.709999999999999 0.0 0.0 0.0 10.709999999999999" Properties=species:S:1:pos:R:3:forces:R:3 group=Zr_rattle10_b9 composition=Zr energy=-458.1883850097656 pbc="T T T"
Zr      -0.09359908      -0.12569754       0.13057076       0.10577223       0.37667552      -0.30610779
Zr       1.87873729       1.66679925       1.81232425      -0.32429752       0.50244588      -0.08733159
Zr      -0.00712720      -0.00073812       3.45851541      -0.13105413       0.27360812       0.33137459
Zr       1.83998559       1.89794445       5.40215013      -0.16820985      -0.20561621      -0.08851379
Zr      -0.12479072      -0.04067598       7.16390904       0.74017388      -0.09365018      -0.03701226
Zr       1.67560142       1.71896243       8.98724009       0.30526364      -0.21756659      -0.09593701
Zr       0.13683390       3.54043090      -0.06505659      -0.50763613      -0.01742561       0.33577767
Zr       1.62149698       5.27470765       1.85435091       0.22721961       0.13713306      -0.08116175
Zr      -0.14138285       3.54564112       3.57511324       0.28359404      -0.05155911       0.09626056
Zr       1.72651899       5.51225706       5.43984131      -0.06483240      -0.46909994      -0.35319805
Zr       0.05596321       3.59884698       7.28334379      -0.19282274       0.05220060      -0.50255615
Zr       1.77287532       5.16116673       8.89610276       0.20286030       0.71507990      -0.01299954
Zr       0.04848935       7.08573799      -0.10098685      -0.08205845      -0.02430770       0.25640479
Zr       1.67940492       8.96155499       1.80055305       0.42921370      -0.30172032      -0.06541616
Zr      -0.08712358       7.23947179       3.58759693       0.07262221      -0.26203698      -0.06728290
Zr       1.77874303       8.98207247       5.13668654       0.10034865       0.04327772       0.31459653
Zr      -0.05039749       7.15788478       7.14250298       0.16684197       0.07941604      -0.07868260
Zr       1.83522463       8.87316273       9.03678548       0.05630377      -0.04239322      -0.30405542
Zr       3.58817353      -0.00348612       0.03520832      -0.05289775      -0.27904558      -0.09513859
Zr       5.21143761       1.91029342       1.74845188       0.47111574      -0.20032449       0.15130338
Zr       3.75055647       0.14333009       3.43414654      -0.48914036      -0.49948901       0.24386679
Zr       5.16196242       1.60675953       5.36177140       0.47397798       0.69566929       0.23329332
Zr       3.57398189      -0.10360599       7.12851596      -0.45634916       0.10569583       0.24369600
Zr       5.16081927       1.83442892       8.99686579       0.41286644      -0.32753238      -0.19072168
Zr       3.75892400       3.65698217      -0.09388470      -0.71176475       0.01275614       0.30397391
Zr       5.32026931       5.34342919       1.79489478       0.23611602       0.11817548       0.03217338
Zr       3.57731876       3.66337088       3.55402546      -0.18543598      -0.01163738       0.28911090
Zr       5.31963596       5.46032669       5.49672549       0.27885872      -0.43145460      -0.56670576
Zr       3.67943830       3.56102254       7.29348993      -0.35875821      -0.00770824      -0.58478910
Zr       5.36273657       5.44683926       8.79698872       0.15766755      -0.04830694       0.20074531
Zr       3.63971613       6.99494741       0.03813501      -0.29370072       0.37639883      -0.11743794
Zr       5.38813652       8.93717911       1.84643116       0.03856236       0.02757771      -0.26925445
Zr       3.66061894       7.06937363       3.41443602      -0.30079141       0.23362261       0.31436697
Zr       5.29507451       9.01545851       5.46239500       0.11073941      -0.14198118      -0.54210937
Zr       3.62679298       7.09783965       6.89252676      -0.49130648       0.39307490       0.75409091
Zr       5.47190661       8.96955485       8.90307992      -0.52141452      -0.21494025       0.31175202
Zr       7.07143587       0.10473953      -0.00108599       0.13597089      -0.11310098       0.15060779
Zr       8.90505361       1.83620618       1.74579418      -0.03334406      -0.04057159       0.12421522
Zr       7.12958691       0.05156869       3.76043778       0.14324963       0.17663237      -0.42005095
Zr       9.06445144       1.74179522       5.54564633      -0.33851266       0.24142009      -0.50241745
Zr       7.10316055      -0.02199907       7.34881579       0.01036623       0.25040519      -0.44614375
Zr       8.91960173       1.79968839       8.80304443       0.06835477       0.06484853       0.63822508
Zr       7.09242052       3.54696698       0.09185722       0.30184734       0.16366288      -0.40600795
Zr       8.88886337       5.38831549       1.82025437       0.13907133      -0.08513495      -0.23945245
Zr       7.02401424       3.65654664       3.52698833       0.13201384      -0.39810798       0.37287760
Zr       8.80301851       5.32422417       5.22979225       0.15687630       0.03359237       0.44022712
Zr       7.12792966       3.47329646       7.23391096      -0.10223556       0.15144590      -0.33973375
Zr       8.93559416       5.46098450       8.84825993      -0.14765893      -0.28715801       0.10919452
Zr       7.09472874       7.04266200      -0.08718640       0.17453030       0.26497218       0.18020904
Zr       8.86873564       8.92437287       1.76893058      -0.11652611       0.00425214      -0.09214994
Zr       7.17977395       7.25073422       3.49260191      -0.21257484      -0.14296502       0.27696717
Zr       8.94565040       8.98832153       5.37267512      -0.08566487      -0.06488809      -0.02261933
Zr       7.03830647       7.27979265       7.07001057       0.51820213      -0.18659757       0.05502407
Zr       9.02129152       9.00647118       8.93836819      -0.28161368      -0.32771879       0.15465292
16
Lattice="7.14 0.0 0.0 0.0 7.14 0.0 0.0 0.0 7.14" Properties=species:S:1:pos:R:3:forces:R:3 group=Zr_rattle18_b2 composition=Zr energy=-133.00054931640625 pbc="T T T"
Zr       0.07696738       0.22518801       0.04505588      -1.03380251      -1.31821597      -0.07374291
Zr       1.79295473       1.72921768       1.60142000       0.10485542       0.32218635       1.41308522
Zr      -0.31650641       0.14122072       3.36373160       1.61366224      -1.48455405       0.62571728
Zr       1.81022979       1.45235137       5.35248366      -0.39562368       1.85323095      -0.80398381
Zr       0.12001746       3.41033413       0.02973528      -0.20899814       0.84715700      -0.22503129
Zr       2.45808240       5.57188830       2.00300183      -3.05773950      -0.62455058      -0.75737727
Zr      -0.04150932       3.54283693       3.41013120       0.80439836       0.66889387       0.32334965
Zr       1.74124901       5.67408270       5.31515321      -0.29502460      -1.47026515      -0.07548577
Zr       3.56747314       0.05865499      -0.06812725       0.74562705      -0.05182406      -0.33147147
Zr       5.22061235       1.74102590       1.97921260       0.43498981       1.25780606      -1.96721816
Zr       3.61086493       0.31041869       3.44694579      -0.39085290      -1.08765340       1.07631803
Zr       5.24638807       1.61820676       5.10778727       0.66836250       0.71197951       1.76685607
Zr       3.50109553       3.44530908       0.18051891      -0.12507474      -0.00478476      -0.80796015
Zr       5.26770907       5.47493437       1.55821381       1.15431845      -0.55922341       0.32076555
Zr       3.70229843       3.76587288       3.70011790      -1.05924988      -1.01627493      -0.34389651
Zr       5.20249481       4.89107253       5.53422688       1.04015279       1.95609248      -0.13992427
16
Lattice="7.14 0.0 0.0 0.0 7.14 0.0 0.0 0.0 7.14" Properties=species:S:1:pos:R:3:forces:R:3 group=Zr_rattle18_b2 composition=Zr energy=-134.69091796875 pbc="T T T"
Zr      -0.01922592      -0.00026245      -0.11211165      -0.32444111       0.46370122       0.26816770
Zr       1.73638262       1.73549895       1.79795621      -0.21861041       0.14753783       0.08898002
Zr      -0.11101358      -0.12944981       3.46044444       0.81216753      -0.20427594       0.80447376
Zr       1.83247252       1.84413709       5.38965444      -0.15654783      -0.63942111      -0.62614620
Zr       0.10133265       3.51555737      -0.11181779      -0.44184265      -0.57162905       0.32612106
Zr       1.86121483       5.13375800       1.99678584      -0.61954886       0.11896987      -0.72104669
Zr      -0.09564947       3.52036768       3.59721069       0.37609917       0.02772883       0.16023409
Zr       1.71004898       5.42173083       5.56770482       0.24130410      -0.13468370      -0.89375162
Zr       3.31903040      -0.08816145       0.32693352       0.96020609       0.10868253      -0.88383198
Zr       5.35133922       1.49813323       2.23260568       0.04463500       0.73799801      -2.11188221
Zr       3.51957956      -0.22285375       3.46121364      -0.16216671      -0.12185533       0.76843232
Zr       5.12082697       1.82052667       5.19080573       0.46930993      -0.74459225       0.79210722
Zr       3.60906869       3.56763875      -0.31515518      -0.02732512      -0.18843937       1.43344617
Zr       5.65026250       5.21962606       1.55905661      -0.84318823      -0.02677318       0.30565205
Zr       3.56609202       3.47534232       3.27531902       0.09376976       0.43647742       0.62272948
Zr       5.35436731       5.24206133       5.38650621      -0.20382084       0.59057462      -0.33368540
16
Lattice="7.14 0.0 0.0 0.0 7.14 0.0 0.0 0.0 7.14" Properties=species:S:1:pos:R:3:forces:R:3 group=Zr_rattle18_b2 composition=Zr energy=-134.36578369140625 pbc="T T T"
Zr       0.02274781       0.29142503       0.14913341      -0.02346604      -0.85036606      -0.52730769
Zr       1.60751181       1.99800816       1.76680138       1.27065897      -0.33840787       0.62323195
Zr       0.13813003      -0.24524726       3.25422954      -0.61430949       1.12007332       0.84368414
Zr       1.80609584       1.54573761       5.29449801      -0.36588252       0.81824118      -0.55780542
Zr       0.02112873       3.26393904      -0.09089015      -0.51077151       1.39292288      -0.54420745
Zr       1.83247822       5.37886788       1.98711439       0.50647193      -0.73049766      -1.11426866
Zr       0.06190376       3.45904388       3.45640235      -0.33226371       0.44155943       0.77225542
Zr       1.92956357       5.41140145       5.18684303      -0.23118900      -0.58827204       0.59794736
Zr       3.31606391       0.04230693       0.00210263       0.54391134      -0.15680555       0.30748141
Zr       5.23684963       1.82913727       1.84474170       0.17982030      -0.15351622      -0.72602338
Zr       3.63936521       0.16309714       3.53179831      -0.51720381      -0.90937448      -0.65445238
Zr       5.12532673       1.60295053       5.09188150       1.34819329       0.43218943       1.30367196
Zr       3.46676681       3.49483674      -0.01775558       0.44532093       0.44932023      -0.34326100
Zr       5.31749264       5.55755719       1.62932090      -0.00023235      -0.77211469      -0.20194784
Zr       4.03401446       3.59586014       3.58646496      -1.20638561       0.89417297       0.17801732
Zr       5.69539174       5.73963223       5.44017553      -0.49267283      -1.04912424       0.04298408
16
Lattice="7.14 0.0 0.0 0.0 7.14 0.0 0.0 -0.31774439526088605 7.14" Properties=species:S:1:pos:R:3:forces:R:3 group=Zr_strain_shear_b0 composition=Zr energy=-136.14990234375 pbc="T T T"
Zr      -0.05972571       0.00268915       0.05328595       0.13685673      -0.08578989      -0.05700737
Zr       1.79291737       1.68675445       1.78336496      -0.01407355       0.04973866      -0.01241291
Zr       0.04501087      -0.14985585       3.62982193      -0.12444498      -0.09105940      -0.16668279
Zr       1.80715169       1.54226688       5.34973528      -0.08901398       0.10134725       0.06425083
Zr       0.01069593       3.53981558      -0.03565865       0.00966722       0.16057594       0.05830979
Zr       1.80309287       5.31420706       1.79323198      -0.04516658      -0.09898338      -0.05395252
Zr      -0.01655425       3.37744128       3.48909929       0.03589574       0.16402853       0.18130837
Zr       1.80746039       5.17615832       5.34871201      -0.10898173      -0.19657755       0.04781456
Zr       3.54732538       0.03191934      -0.01663060       0.06123665      -0.07310715       0.08217956
Zr       5.36507270       1.70467697       1.77036401      -0.06668833      -0.00341585       0.08335076
Zr       3.55454296      -0.11825064       3.62713979       0.10639632      -0.08303723      -0.17161438
Zr       5.40769944       1.51154075       5.34715000      -0.08569838       0.15568894      -0.00470547
Zr       3.58547405       3.54283581       0.00016851      -0.02469461       0.09945692      -0.01869247
Zr       5.31886475       5.25832803       1.79966931       0.04456934       0.03517448       0.01548104
Zr       3.52231781       3.40804325       3.57523637       0.11546364       0.03826554       0.02226187
Zr       5.34407653       5.15574512       5.37357826       0.04867665      -0.17230564      -0.06988876
16
Lattice="7.14 0.0 0.0 0.13859581602311988 7.14 0.0 0.0 0.0 7.14" Properties=species:S:1:pos:R:3:forces:R:3 group=Zr_strain_shear_b0 composition=Zr energy=-136.18670654296875 pbc="T T T"
Zr       0.07569636       0.01581373       0.02438338      -0.25185344      -0.05507834      -0.05491617
Zr       1.84463544       1.76693241       1.75498483      -0.02910429       0.04943676       0.11370729
Zr      -0.01622107      -0.02208798       3.53727514      -0.00742193       0.08529565       0.05384145
Zr       1.78475575       1.75106750       5.38236219       0.11311922       0.10246653      -0.12455945
Zr       0.08135455       3.53684288      -0.01917275      -0.00502305       0.11405076       0.00989781
Zr       1.85365988       5.37152437       1.75088694       0.10406566      -0.06055063       0.10952663
Zr       0.01766384       3.53974212       3.50260908       0.16725123       0.02370369       0.14286348
Zr       1.83615639       5.38448843       5.30686120       0.14052582      -0.11084325       0.02728753
Zr       3.59360280      -0.01222464       0.01873879       0.02324617      -0.01352693      -0.09478743
Zr       5.36554643       1.80578034       1.79769968       0.06706196      -0.10275434      -0.07858159
Zr       3.60740541       0.06575251       3.57681605      -0.07646948      -0.14181414       0.04477594
Zr       5.40262039       1.84325974       5.38138716      -0.04191189      -0.12084543      -0.01076914
Zr       3.64677654       3.58130893       0.06518638      -0.07964361       0.03288910      -0.22724682
Zr       5.43849474       5.31065287       1.80215083       0.02542847       0.13866496      -0.06409766
Zr       3.63894160       3.56018352       3.55980494      -0.11997443       0.06404357       0.11981760
Zr       5.46644459       5.36589443       5.34859620      -0.02929680      -0.00513805       0.03324063
16
Lattice="7.14 0.0 0.0 -0.33081331882133613 7.14 0.0 0.0 0.0 7.14" Properties=species:S:1:pos:R:3:forces:R:3 group=Zr_strain_shear_b0 composition=Zr energy=-136.14813232421875 pbc="T T T"
Zr       0.00523797      -0.01255053      -0.01742634      -0.00183168      -0.00701423       0.10427785
Zr       1.66554352       1.79067176       1.81307992       0.09777809      -0.05585985      -0.01219246
Zr      -0.00068964      -0.01628379       3.55547121       0.01041308       0.03377146       0.02634881
Zr       1.65618446       1.77255069       5.41880637       0.15749609       0.06546350      -0.11218617
Zr      -0.19266464       3.51422960       0.05999736       0.03316264       0.13045055      -0.11992970
Zr       1.52492892       5.30774827       1.74197148       0.11098488       0.17500190       0.07184850
Zr      -0.13098272       3.61181776       3.58512599      -0.08921665      -0.09628858       0.03150515
Zr       1.45955172       5.35643937       5.35771290       0.24926960       0.01068236       0.04572482
Zr       3.62468982       0.04116594      -0.01422649      -0.16079246      -0.09880415       0.02098404
Zr       5.26953754       1.78562324       1.80143189       0.00422952      -0.02409972       0.06912492
Zr       3.56093907       0.04410063       3.55059489      -0.04192519      -0.11833054       0.08894095
Zr       5.32211928       1.80173676       5.37105832      -0.12796673       0.00377183      -0.08236049
Zr       3.41357121       3.57764606       0.07471331      -0.03722985      -0.01416929      -0.19677840
Zr       5.12763156       5.34229334       1.79580876      -0.08481149       0.04877250       0.03517146
Zr       3.40734335       3.56142480       3.58275545      -0.02485209       0.04589683       0.10261763
Zr       5.10868285       5.38586083       5.38887021      -0.09470771      -0.09924454      -0.07309689
16
Lattice="6.920913961719865 0.0 0.0 0.0 6.920913961719865 0.0 0.0 0.0 6.920913961719865" Properties=species:S:1:pos:R:3:forces:R:3 group=Zr_strain_vol_b0 composition=Zr energy=-134.73365783691406 pbc="T T T"
Zr       0.03385419       0.00785326       0.07880670      -0.09830811       0.01148365      -0.19846973
Zr       1.72818586       1.72825031       1.73801842       0.07512930       0.07877414      -0.01485345
Zr       0.00644241       0.02031714       3.44703422       0.09152302      -0.09858325       0.08770737
Zr       1.75222400       1.77013806       5.18963723      -0.03457662      -0.19376397       0.05682175
Zr      -0.00928938       3.45319858       0.05264888      -0.03737915       0.02324855      -0.09945817
Zr       1.76122136       5.20869175       1.69384022      -0.09576434      -0.08167897       0.15847813
Zr       0.02904610       3.47050386       3.47184730      -0.05216390       0.07454222       0.00349692
Zr       1.71595018       5.15805032       5.20849515       0.03866225       0.21653518      -0.09313248
Zr       3.47168141      -0.00780461       0.02652192       0.02799225       0.12393613      -0.12983352
Zr       5.19352663       1.75580520       1.75691369      -0.02341717      -0.04500821      -0.11365375
Zr       3.48628203       0.02075904       3.43159427      -0.13645065      -0.07124358       0.15002009
Zr       5.21452175       1.71993424       5.16042133       0.00359589       0.06585464       0.17855138
Zr       3.46272147       3.48354459      -0.01838153       0.07135129      -0.11649665      -0.00493078
Zr       5.14966617       5.16651537       1.76570978       0.15710373       0.07357155      -0.04457700
Zr       3.47106227       3.45556371       3.44112643      -0.00484465       0.07940145       0.09809320
Zr       5.20634082       5.25166765       5.21640079       0.01754682      -0.14057268      -0.03426003
16
Lattice="6.8221790815099155 0.0 0.0 0.0 6.8221790815099155 0.0 0.0 0.0 6.8221790815099155" Properties=species:S:1:pos:R:3:forces:R:3 group=Zr_strain_vol_b0 composition=Zr energy=-133.21397399902344 pbc="T T T"
Zr       0.03051774       0.03678870      -0.02488516      -0.01611408      -0.11369845       0.03049798
Zr       1.67620570       1.72555159       1.72469094       0.03542879       0.01202062      -0.14075139
Zr      -0.02082996      -0.01591940       3.39064936      -0.13221441      -0.06208846       0.00759280
Zr       1.68774901       1.70112762       5.09703621       0.14989454      -0.02880967       0.14866748
Zr      -0.02904152       3.38835917       0.02423999       0.25189453       0.10949981      -0.01157806
Zr       1.70224647       5.13549815       1.68125211      -0.02924442      -0.08292452      -0.03665465
Zr       0.00182458       3.37162956       3.43465596      -0.03342116       0.12281096      -0.06008798
Zr       1.66582111       5.09991247       5.11401226       0.11607420       0.01469655       0.05477943
Zr       3.47616999      -0.00595035       0.02183010      -0.14678764       0.01529369      -0.17395860
Zr       5.11377560       1.69255056       1.67687558       0.03046823      -0.09779301       0.15196046
Zr       3.37738954       0.02304598       3.35890949       0.14928830      -0.08731174       0.19751513
Zr       5.13675347       1.75926379       5.12412910      -0.11999381      -0.24234569      -0.13540514
Zr       3.46680134       3.38195879       0.01560707      -0.33130273       0.01038301      -0.05550438
Zr       5.12239044       5.05049058       1.68735046       0.06308988       0.17301181       0.13829994
Zr       3.40657799       3.40272839       3.39426184      -0.00739396       0.06006235       0.03995812
Zr       5.08224717       5.09323078       5.14570059       0.02033321       0.19719364      -0.15533109
16
Lattice="6.9386073937436805 0.0 0.0 0.0 6.9386073937436805 0.0 0.0 0.0 6.9386073937436805" Properties=species:S:1:pos:R:3:forces:R:3 group=Zr_strain_vol_b0 composition=Zr energy=-134.95785522460938 pbc="T T T"
Zr       0.01207560      -0.01587692      -0.01291744       0.01877463       0.07207617       0.04340964
Zr       1.78782649       1.79585831       1.75402593      -0.12545505      -0.26064682      -0.11938748
Zr       0.03150819       0.01233431       3.45537453      -0.02951297       0.00510563      -0.03651248
Zr       1.71363453       1.74611632       5.20517879       0.10559887      -0.03226018       0.06361994
Zr      -0.02367789       3.44086571      -0.03270149       0.03785163       0.06036225      -0.01154310
Zr       1.70707690       5.17592503       1.70385514       0.10318220       0.11795750       0.03166662
Zr       0.02697525       3.44794675       3.45087852      -0.11780322       0.06170882       0.06008787
Zr       1.72898520       5.20680002       5.18071464      -0.00070930      -0.06422909       0.06334963
Zr       3.48013948      -0.02846008      -0.01383789      -0.06680924       0.05807487       0.09744158
Zr       5.20621064       1.74150575       1.71218857       0.06247091      -0.11075999       0.06375121
Zr       3.48142365      -0.02189767       3.47803558      -0.06512403       0.04332553      -0.13423735
Zr       5.18952895       1.74508922       5.18708353       0.00838691      -0.02062190      -0.00006463
Zr       3.49354936       3.44841449       0.05442306      -0.04945081       0.09916583      -0.21750152
Zr       5.23548559       5.18998026       1.73549366      -0.06725731       0.04900795       0.00800702
Zr       3.46879269       3.44548866       3.47847221       0.05995977       0.09027821       0.04414970
Zr       5.17137474       5.24888602       5.17324651       0.12589720      -0.16854489       0.04376345
